fcc Si+fcc Ge
    1.000000000
   16.440000000    0.000000000    0.000000000
    0.000000000   17.329281578    0.000000000
    0.000000000    0.000000000   18.137881348
Si    Ge   
72     144
Direct
    0.483128831    0.249999998    0.453935740
    0.999999998    0.999999998    0.000000000
    0.833333332    0.849999998    0.047770964
    0.608128831    0.999999998    0.895246861
    0.733128831    0.833333332    0.343607959
    0.333333332    0.399999998    0.191083856
    0.858128831    0.416666665    0.343607959
    0.333333332    0.999999998    0.000000000
    0.166666665    0.849999998    0.047770964
    0.999999998    0.699999998    0.095541928
    0.833333332    0.549999998    0.143312892
    0.666666665    0.399999998    0.191083856
    0.833333332    0.249999998    0.238854821
    0.666666665    0.999999998    0.000000000
    0.608128831    0.333333332    0.895246861
    0.333333332    0.699999998    0.095541928
    0.166666665    0.549999998    0.143312892
    0.999999998    0.399999998    0.191083856
    0.166666665    0.749999998    0.238854821
    0.358128831    0.333333332    0.895246861
    0.833333332    0.349999998    0.047770964
    0.666666665    0.199999998    0.095541928
    0.499999998    0.049999998    0.143312892
    0.333333332    0.899999998    0.191083856
    0.499999998    0.749999998    0.238854821
    0.333333332    0.499999998    0.000000000
    0.166666665    0.349999998    0.047770964
    0.233128831    0.916666665    0.895246861
    0.833333332    0.049999998    0.143312892
    0.666666665    0.899999998    0.191083856
    0.833333332    0.749999998    0.238854821
    0.983128831    0.499999998    0.784919081
    0.499999998    0.349999998    0.047770964
    0.333333332    0.199999998    0.095541928
    0.108128831    0.749999998    0.343607959
    0.108128831    0.416666665    0.343607959
    0.249999998    0.999999998    0.238854821
    0.108128831    0.999999998    0.895246861
    0.916666665    0.599999998    0.047770964
    0.749999998    0.449999998    0.095541928
    0.583333332    0.299999998    0.143312892
    0.416666665    0.149999998    0.191083856
    0.608128831    0.749999998    0.343607959
    0.358128831    0.999999998    0.895246861
    0.249999998    0.599999998    0.047770964
    0.083333332    0.449999998    0.095541928
    0.916666665    0.299999998    0.143312892
    0.749999998    0.149999998    0.191083856
    0.858128831    0.749999998    0.343607959
    0.749999998    0.749999998    0.000000000
    0.733128831    0.583333332    0.895246861
    0.416666665    0.449999998    0.095541928
    0.249999998    0.299999998    0.143312892
    0.233128831    0.166666665    0.343607959
    0.233128831    0.833333332    0.343607959
    0.483128831    0.583333332    0.895246861
    0.983128831    0.249999998    0.895246861
    0.749999998    0.949999998    0.095541928
    0.858128831    0.083333332    0.343607959
    0.483128831    0.499999998    0.343607959
    0.983128831    0.166666665    0.343607959
    0.416666665    0.249999998    0.000000000
    0.858128831    0.333333332    0.895246861
    0.358128831    0.666666665    0.895246861
    0.916666665    0.799999998    0.143312892
    0.358128831    0.416666665    0.343607959
    0.916666665    0.499999998    0.238854821
    0.733128831    0.916666665    0.895246861
    0.983128831    0.916666665    0.895246861
    0.416666665    0.949999998    0.095541928
    0.249999998    0.799999998    0.143312892
    0.483128831    0.833333332    0.343607959
    0.233128831    0.499999998    0.343607959
    0.858128831    0.333333332    0.453935740
    0.483128831    0.166666665    0.564263520
    0.108128831    0.999999998    0.674591300
    0.733128831    0.833333332    0.784919081
    0.083333332    0.949999998    0.095541928
    0.249999998    0.499999998    0.238854821
    0.858128831    0.666666665    0.453935740
    0.483128831    0.499999998    0.564263520
    0.108128831    0.333333332    0.674591300
    0.733128831    0.166666665    0.784919081
    0.416666665    0.749999998    0.000000000
    0.083333332    0.149999998    0.191083856
    0.858128831    0.999999998    0.453935740
    0.483128831    0.833333332    0.564263520
    0.108128831    0.666666665    0.674591300
    0.733128831    0.499999998    0.784919081
    0.999999998    0.499999998    0.000000000
    0.733128831    0.499999998    0.343607959
    0.358128831    0.333333332    0.453935740
    0.983128831    0.166666665    0.564263520
    0.608128831    0.999999998    0.674591300
    0.233128831    0.833333332    0.784919081
    0.858128831    0.666666665    0.895246861
    0.499999998    0.549999998    0.143312892
    0.358128831    0.666666665    0.453935740
    0.983128831    0.499999998    0.564263520
    0.608128831    0.333333332    0.674591300
    0.233128831    0.166666665    0.784919081
    0.858128831    0.999999998    0.895246861
    0.733128831    0.166666665    0.343607959
    0.358128831    0.999999998    0.453935740
    0.983128831    0.833333332    0.564263520
    0.608128831    0.666666665    0.674591300
    0.233128831    0.499999998    0.784919081
    0.249999998    0.099999998    0.047770964
    0.416666665    0.649999998    0.191083856
    0.108128831    0.333333332    0.453935740
    0.733128831    0.166666665    0.564263520
    0.358128831    0.999999998    0.674591300
    0.983128831    0.833333332    0.784919081
    0.608128831    0.666666665    0.895246861
    0.083333332    0.649999998    0.191083856
    0.108128831    0.666666665    0.453935740
    0.733128831    0.499999998    0.564263520
    0.358128831    0.333333332    0.674591300
    0.983128831    0.166666665    0.784919081
    0.666666665    0.699999998    0.095541928
    0.483128831    0.166666665    0.343607959
    0.108128831    0.999999998    0.453935740
    0.733128831    0.833333332    0.564263520
    0.358128831    0.666666665    0.674591300
    0.666666665    0.499999998    0.000000000
    0.499999998    0.849999998    0.047770964
    0.983128831    0.499999998    0.343607959
    0.608128831    0.333333332    0.453935740
    0.233128831    0.166666665    0.564263520
    0.858128831    0.999999998    0.674591300
    0.483128831    0.833333332    0.784919081
    0.108128831    0.666666665    0.895246861
    0.983128831    0.833333332    0.343607959
    0.608128831    0.666666665    0.453935740
    0.233128831    0.499999998    0.564263520
    0.858128831    0.333333332    0.674591300
    0.483128831    0.166666665    0.784919081
    0.083333332    0.749999998    0.000000000
    0.583333332    0.499999998    0.238854821
    0.608128831    0.999999998    0.453935740
    0.233128831    0.833333332    0.564263520
    0.858128831    0.666666665    0.674591300
    0.483128831    0.499999998    0.784919081
    0.108128831    0.333333332    0.895246861
    0.583333332    0.999999998    0.238854821
    0.233128831    0.583333332    0.453935740
    0.858128831    0.416666665    0.564263520
    0.483128831    0.249999998    0.674591300
    0.108128831    0.083333332    0.784919081
    0.749999998    0.249999998    0.000000000
    0.608128831    0.083333332    0.343607959
    0.233128831    0.916666665    0.453935740
    0.858128831    0.749999998    0.564263520
    0.483128831    0.583333332    0.674591300
    0.108128831    0.416666665    0.784919081
    0.733128831    0.249999998    0.895246861
    0.608128831    0.416666665    0.343607959
    0.233128831    0.249999998    0.453935740
    0.858128831    0.083333332    0.564263520
    0.483128831    0.916666665    0.674591300
    0.108128831    0.749999998    0.784919081
    0.583333332    0.599999998    0.047770964
    0.166666665    0.049999998    0.143312892
    0.733128831    0.583333332    0.453935740
    0.358128831    0.416666665    0.564263520
    0.983128831    0.249999998    0.674591300
    0.608128831    0.083333332    0.784919081
    0.999999998    0.199999998    0.095541928
    0.108128831    0.083333332    0.343607959
    0.733128831    0.916666665    0.453935740
    0.358128831    0.749999998    0.564263520
    0.983128831    0.583333332    0.674591300
    0.608128831    0.416666665    0.784919081
    0.233128831    0.249999998    0.895246861
    0.999999998    0.899999998    0.191083856
    0.733128831    0.249999998    0.453935740
    0.358128831    0.083333332    0.564263520
    0.983128831    0.916666665    0.674591300
    0.608128831    0.749999998    0.784919081
    0.233128831    0.583333332    0.895246861
    0.358128831    0.749999998    0.343607959
    0.983128831    0.583333332    0.453935740
    0.608128831    0.416666665    0.564263520
    0.233128831    0.249999998    0.674591300
    0.858128831    0.083333332    0.784919081
    0.483128831    0.916666665    0.895246861
    0.358128831    0.083333332    0.343607959
    0.983128831    0.916666665    0.453935740
    0.608128831    0.749999998    0.564263520
    0.233128831    0.583333332    0.674591300
    0.858128831    0.416666665    0.784919081
    0.483128831    0.249999998    0.895246861
    0.749999998    0.649999998    0.191083856
    0.983128831    0.249999998    0.453935740
    0.608128831    0.083333332    0.564263520
    0.233128831    0.916666665    0.674591300
    0.858128831    0.749999998    0.784919081
    0.083333332    0.249999998    0.000000000
    0.916666665    0.999999998    0.238854821
    0.483128831    0.583333332    0.453935740
    0.108128831    0.416666665    0.564263520
    0.733128831    0.249999998    0.674591300
    0.358128831    0.083333332    0.784919081
    0.583333332    0.099999998    0.047770964
    0.583333332    0.799999998    0.143312892
    0.483128831    0.916666665    0.453935740
    0.108128831    0.749999998    0.564263520
    0.733128831    0.583333332    0.674591300
    0.358128831    0.416666665    0.784919081
    0.916666665    0.099999998    0.047770964
    0.499999998    0.249999998    0.238854821
    0.166666665    0.249999998    0.238854821
    0.108128831    0.083333332    0.564263520
    0.733128831    0.916666665    0.674591300
    0.358128831    0.749999998    0.784919081
    0.983128831    0.583333332    0.895246861
