File converted from QE to VASP
    1.000000000
   10.557104240    0.000000000    0.000000000
    0.000000000   10.557104240    0.000000000
    0.000000000    0.000000000   35.521480703
Ca    Cu    Ti    O    
10     102     48     219
Direct
    0.876193519    0.005662324    0.386527134
    0.876176377    0.000600848    0.174480511
    0.378432558    0.504599206    0.386785660
    0.373948867    0.503231035    0.174466396
    0.375327961    0.001334232    0.068496638
    0.375712630    0.002198526    0.492321664
    0.376242340    0.004060220    0.281020146
    0.874326112    0.500709713    0.064187491
    0.878261570    0.515716123    0.496923984
    0.874900199    0.503340263    0.280228735
    0.125532908    0.754601050    0.386143089
    0.125718860    0.751161895    0.175498224
    0.626542652    0.256879323    0.385721058
    0.624535678    0.253079261    0.175004039
    0.128200836    0.254335784    0.385378588
    0.125493701    0.252200722    0.175986557
    0.624840185    0.755876351    0.385603869
    0.624916514    0.751928610    0.176009296
    0.874929948    0.000937153    0.071279029
    0.881456784    0.016204905    0.490692769
    0.875564745    0.003592608    0.280600663
    0.374930800    0.501031875    0.067816675
    0.375521177    0.506182108    0.494425232
    0.375970733    0.503573032    0.280558856
    0.376575674    0.005060624    0.385044827
    0.374099378    0.000886463    0.175917313
    0.876068956    0.505257057    0.386296540
    0.876635897    0.503428884    0.175713018
    0.126055067    0.744865346    0.067241552
    0.123874200    0.753786047    0.495411014
    0.125525892    0.753141179    0.280857063
    0.623742831    0.256942759    0.067662559
    0.627562780    0.257986693    0.493993069
    0.625942271    0.253927798    0.280584454
    0.123759079    0.247627111    0.070331147
    0.129497675    0.257513008    0.489539064
    0.126117487    0.253883114    0.280724880
    0.626177638    0.754235594    0.070468108
    0.624497894    0.759377328    0.490202347
    0.625840266    0.753027780    0.280889266
    0.882195426    0.074171853    0.614398723
    0.390345989    0.064955758    0.615328710
    0.884002106    0.409814364    0.619109087
    0.380009511    0.394852242    0.621776152
    0.887421482    0.740333207    0.617493155
    0.377183549    0.724188093    0.624032822
    0.885686426    0.074435843    0.748086637
    0.385171401    0.065160311    0.750621698
    0.884638357    0.401660865    0.748574300
    0.384368284    0.392180374    0.751379458
    0.884035665    0.743015300    0.747964603
    0.383875076    0.734160995    0.750448557
    0.886145759    0.073777110    0.881799427
    0.384771263    0.065312312    0.884317487
    0.886084100    0.413202090    0.878226210
    0.385062950    0.397840697    0.882297803
    0.887689573    0.747962737    0.878762578
    0.387564903    0.734310942    0.881494927
    0.885548363    0.234165626    0.681243117
    0.384819927    0.225192284    0.684333236
    0.882585584    0.570133881    0.683749247
    0.382165238    0.555412518    0.687614864
    0.881193208    0.910268478    0.681753577
    0.382837419    0.902362028    0.683983690
    0.885655783    0.238251529    0.815019122
    0.385418785    0.229127952    0.817567435
    0.886459966    0.576160420    0.813103244
    0.385110025    0.565981427    0.815827459
    0.886275895    0.911001447    0.814288606
    0.385762089    0.901145303    0.816774251
    0.879260702    0.248396107    0.943637601
    0.395951591    0.228173167    0.950433787
    0.885083153    0.576579762    0.942190692
    0.386523061    0.562559115    0.945567796
    0.886009171    0.911576508    0.949068990
    0.385656596    0.886247212    0.947448890
    0.135471448    0.075149764    0.683178884
    0.634849785    0.067982221    0.681758757
    0.131050261    0.397166290    0.683996426
    0.633559076    0.389710233    0.681965559
    0.131844107    0.743344849    0.686798661
    0.632246132    0.733179978    0.684330879
    0.135846152    0.073354102    0.817213595
    0.635698234    0.064751629    0.814929314
    0.135752326    0.406664735    0.816573709
    0.634881801    0.396724991    0.813909341
    0.136130567    0.742298238    0.815780958
    0.636160532    0.734762035    0.813922006
    0.136748811    0.088978839    0.947455003
    0.636452205    0.065921731    0.949084626
    0.134242372    0.416410257    0.945599163
    0.635501883    0.403714577    0.942716133
    0.125266642    0.749787540    0.950288697
    0.642763235    0.728675052    0.943534642
    0.135427401    0.229483832    0.614158212
    0.634755094    0.220710955    0.612610013
    0.132869705    0.569221502    0.623782410
    0.629604472    0.559424432    0.621166981
    0.132680600    0.903492078    0.619174362
    0.630983340    0.886761141    0.619284690
    0.135554377    0.237616334    0.750760465
    0.635475428    0.229951262    0.748567706
    0.133612615    0.569709334    0.750159874
    0.634280887    0.562698825    0.748439047
    0.134373199    0.910844807    0.750602668
    0.634353779    0.902213407    0.748581943
    0.134966548    0.240941105    0.882303381
    0.635222388    0.228730801    0.879864046
    0.136866871    0.579596817    0.881963566
    0.635692931    0.564463060    0.878053249
    0.137979980    0.908307057    0.883524458
    0.636429929    0.900665614    0.881353969
    0.127965402    0.986779616    0.012824733
    0.129055066    0.001288707    0.439567003
    0.125584714    0.002530244    0.228642380
    0.627860242    0.507975738    0.011925107
    0.629270991    0.503024547    0.440863345
    0.624731815    0.501304200    0.227073656
    0.389490508    0.753513295    0.014082157
    0.377983046    0.750989278    0.439624739
    0.375779410    0.752985228    0.228929694
    0.884270368    0.234944891    0.011911985
    0.882522727    0.258392905    0.437206478
    0.873148623    0.252488493    0.226572169
    0.359896958    0.247705267    0.014100808
    0.377233723    0.259672270    0.438746705
    0.376770550    0.252714338    0.227299853
    0.864939466    0.766107210    0.011856912
    0.870724440    0.755261597    0.439018214
    0.875591059    0.752467638    0.228455566
    0.126795580    0.003550859    0.121445827
    0.132028404    0.978965538    0.556381842
    0.123493122    0.001385943    0.333535864
    0.625529707    0.504860257    0.120541482
    0.607633368    0.512554202    0.550080020
    0.627344393    0.504331920    0.333476476
    0.621384996    0.014856492    0.012880286
    0.624574940    0.010555982    0.438560376
    0.625599045    0.004210846    0.227242367
    0.120482724    0.492734545    0.011736681
    0.126545802    0.507812578    0.440247011
    0.125502819    0.502672184    0.228484645
    0.377719724    0.751449346    0.121018870
    0.386443527    0.770586565    0.551551220
    0.373115425    0.751345630    0.334021998
    0.880520395    0.253721059    0.121071500
    0.871419512    0.264565665    0.544030856
    0.878782951    0.254874433    0.332317626
    0.371848949    0.252077145    0.121372590
    0.369878726    0.235729654    0.548171660
    0.377811852    0.257333412    0.332931355
    0.869970137    0.748771821    0.120812667
    0.859363546    0.754737812    0.548455904
    0.875898895    0.753204019    0.333913719
    0.623635554    0.999303615    0.121777901
    0.629711471    0.015775108    0.547735873
    0.628470186    0.005909399    0.332726961
    0.124118211    0.498030586    0.119867379
    0.143953403    0.491260065    0.549574069
    0.125018898    0.504406662    0.334198454
    0.019353750    0.131579759    0.009766885
    0.025503311    0.158554595    0.421561015
    0.026845839    0.152969528    0.213093034
    0.522206161    0.647567638    0.007759265
    0.526657314    0.657724136    0.422542487
    0.525537459    0.654346210    0.212954945
    0.026961987    0.151781824    0.139458837
    0.979332213    0.955245302    0.532826930
    0.027753719    0.155932513    0.347989238
    0.524346127    0.653011923    0.138956185
    0.515076765    0.657523904    0.555750506
    0.526992612    0.656862358    0.348402959
    0.227359312    0.353343697    0.007432928
    0.226446266    0.355255374    0.422282307
    0.223657909    0.352460358    0.212891079
    0.730594882    0.870506475    0.009379235
    0.726214382    0.853665754    0.421952238
    0.725147034    0.850933221    0.213090829
    0.224007714    0.351661127    0.138834731
    0.234745454    0.349681442    0.556655731
    0.225075648    0.353125197    0.348040189
    0.724929385    0.849586518    0.139465301
    0.732293766    0.880663550    0.549269792
    0.724345815    0.852481203    0.348240769
    0.114977040    0.941729809    0.385340478
    0.116999125    0.931796486    0.176257416
    0.617542819    0.443695062    0.386152078
    0.614595787    0.439446188    0.175556891
    0.439920860    0.266718156    0.385140872
    0.437618380    0.262765724    0.175473100
    0.939290756    0.764793725    0.386240889
    0.945084976    0.759323146    0.175619340
    0.311991510    0.744741677    0.385626524
    0.306543106    0.742998291    0.175482193
    0.812854430    0.247477623    0.386528464
    0.811372006    0.243436753    0.175791502
    0.636975027    0.069299597    0.385032534
    0.635335745    0.066348342    0.176285813
    0.135059846    0.567696855    0.386059367
    0.134334797    0.570915145    0.175295637
    0.966276057    0.904154819    0.034779026
    0.964737495    0.918601106    0.451455412
    0.964209872    0.914201467    0.239554538
    0.464546940    0.406328915    0.031903736
    0.465795852    0.417507088    0.450004855
    0.463937717    0.414144300    0.239246114
    0.959743518    0.914636949    0.111811790
    0.964274325    0.915496591    0.322122241
    0.460593279    0.415296969    0.109969337
    0.473754578    0.411890199    0.532028094
    0.464965518    0.416133065    0.322083402
    0.285113860    0.595239545    0.031807423
    0.288595283    0.594320340    0.450091379
    0.286833964    0.591781674    0.239374518
    0.783261033    0.097381705    0.034894626
    0.791977862    0.091209714    0.448757754
    0.786961209    0.091734791    0.239512381
    0.289284640    0.587497440    0.109790238
    0.275207345    0.599399077    0.532408349
    0.287360835    0.592694891    0.322213020
    0.790622720    0.087821978    0.111955784
    0.778439462    0.111102808    0.523144429
    0.787759799    0.093041216    0.322228207
    0.271854108    0.083068008    0.014663193
    0.292070184    0.090720874    0.424423030
    0.285979178    0.091696904    0.217142929
    0.777721488    0.604127644    0.011004894
    0.788531007    0.594452558    0.427599178
    0.786642378    0.592229340    0.217050413
    0.477832168    0.918217208    0.014571828
    0.461784738    0.919751842    0.424546049
    0.464313316    0.913181380    0.217231352
    0.971122191    0.397086331    0.010899083
    0.966149716    0.417963364    0.427665607
    0.965057798    0.413911435    0.217067260
    0.225309415    0.839861008    0.033543681
    0.223414624    0.851653375    0.455719158
    0.224563780    0.851651801    0.243780827
    0.717908333    0.349502922    0.029910937
    0.727919258    0.356551100    0.456882786
    0.724386056    0.351979200    0.243434245
    0.217500577    0.841816210    0.106014479
    0.228286745    0.850461426    0.530970469
    0.224039678    0.852453079    0.318081722
    0.720832056    0.347989340    0.104955437
    0.728343081    0.357051066    0.534066736
    0.724639862    0.352602979    0.318122597
    0.130553562    0.061985789    0.073146593
    0.137407319    0.083117700    0.484898178
    0.136678752    0.065947768    0.280893272
    0.633313494    0.568778750    0.071817598
    0.630796833    0.578231452    0.490059830
    0.635738371    0.565968964    0.280799328
    0.307199957    0.239320801    0.071835136
    0.308153538    0.249528370    0.488356186
    0.313046673    0.243230837    0.280847341
    0.809357359    0.744321536    0.071895096
    0.805607920    0.752515759    0.489953140
    0.813901611    0.743108871    0.280827032
    0.287715641    0.088838340    0.134451919
    0.273728412    0.089593796    0.545438105
    0.289705837    0.090964021    0.345520009
    0.786846972    0.589187813    0.134410457
    0.770837057    0.609349068    0.551006634
    0.787521671    0.593283277    0.344564291
    0.462093254    0.913805580    0.134521152
    0.474263900    0.922060213    0.549596880
    0.462552447    0.918124364    0.345489700
    0.963729818    0.414166669    0.134388726
    0.979031996    0.401065661    0.548750138
    0.964581131    0.415711942    0.344651096
    0.524622033    0.161761610    0.033785297
    0.530976798    0.160195408    0.453446487
    0.526630499    0.154455591    0.243435581
    0.031807670    0.651795355    0.029474933
    0.028126580    0.657129572    0.456672565
    0.026823976    0.654078464    0.243684399
    0.532311160    0.160436891    0.106410919
    0.521122488    0.159918600    0.527368245
    0.527518328    0.155746942    0.317728033
    0.028816766    0.654370858    0.104401376
    0.014426871    0.672938090    0.532411196
    0.027189164    0.655606588    0.318300597
    0.442517405    0.763132312    0.071754236
    0.445096288    0.766584208    0.489370520
    0.437900809    0.763990596    0.280898602
    0.940702672    0.257662073    0.072149426
    0.950167685    0.254945174    0.491330059
    0.938519779    0.264078702    0.280939316
    0.619721002    0.939107739    0.073483089
    0.613654298    0.938561652    0.486869005
    0.615289010    0.940458610    0.281095618
    0.116244014    0.433859231    0.071388008
    0.123167735    0.436906981    0.490218472
    0.115660289    0.441800577    0.280774605
    0.018351282    0.116387375    0.585299202
    0.002110326    0.166579066    0.969608052
    0.533238957    0.092981120    0.584149516
    0.502322447    0.097641320    0.981852573
    0.001667180    0.515603363    0.591864237
    0.015074035    0.516199367    0.974012520
    0.508429048    0.465650318    0.591796318
    0.503856466    0.462407737    0.974448121
    0.995779788    0.859049915    0.588127810
    0.018923142    0.881580434    0.982096146
    0.501830502    0.799824987    0.597382260
    0.519038606    0.807844637    0.969810167
    0.011584236    0.159687410    0.715876845
    0.510875608    0.142536705    0.716476788
    0.008701767    0.487079842    0.716076845
    0.510711635    0.468688461    0.717341774
    0.006538963    0.834480157    0.716671173
    0.506594457    0.816921450    0.716911895
    0.009772390    0.159419955    0.849174421
    0.509160103    0.140213260    0.849434556
    0.012839901    0.500474602    0.847572115
    0.508836185    0.475962786    0.847677154
    0.013942052    0.833941668    0.847957280
    0.512868256    0.815039013    0.848278111
    0.291154461    0.191745739    0.588737957
    0.257750767    0.182653581    0.978473029
    0.775478940    0.178696363    0.581992513
    0.738366598    0.197459913    0.974350099
    0.256718483    0.485987904    0.598537735
    0.259738325    0.490705903    0.972258704
    0.756000851    0.486559135    0.594562798
    0.757421853    0.494999090    0.965917205
    0.239168069    0.780750225    0.593674257
    0.263441166    0.795903547    0.978355302
    0.753801409    0.799051506    0.589473447
    0.783200121    0.782505824    0.974218039
    0.260103756    0.149932206    0.718301410
    0.760589463    0.152917057    0.713976526
    0.255636174    0.473795455    0.719710754
    0.757800464    0.479286012    0.714871762
    0.259391028    0.824554887    0.718579211
    0.758671353    0.823046812    0.714345188
    0.260830506    0.151258631    0.851776113
    0.761358243    0.150018071    0.847205795
    0.260839507    0.488059101    0.850089137
    0.760686739    0.488147214    0.843820553
    0.261038159    0.821054922    0.850471373
    0.760768412    0.824775297    0.846092531
    0.006246902    0.997247763    0.650951290
    0.509764840    0.977714210    0.651125729
    0.009911481    0.315198032    0.647713483
    0.509393139    0.295766495    0.649148664
    0.008058604    0.665294831    0.652970334
    0.503313762    0.641388185    0.654623663
    0.010504201    0.998215738    0.782543593
    0.510144241    0.979761427    0.782798119
    0.010515615    0.325198371    0.782922128
    0.510057236    0.305940414    0.783129637
    0.010771708    0.663424521    0.781152411
    0.510114644    0.646495125    0.782087159
    0.013305501    0.997364607    0.914756550
    0.509703326    0.976271195    0.914920800
    0.007293423    0.331750217    0.912877404
    0.511631947    0.303992297    0.914051345
    0.010518568    0.674097953    0.913530512
    0.514697333    0.645381381    0.912778100
    0.260642005    0.989129520    0.650105069
    0.756751681    0.990160817    0.646889225
    0.257196569    0.310772989    0.653664410
    0.760044834    0.313434697    0.648151105
    0.253824662    0.644009975    0.657968644
    0.756283604    0.650216899    0.651166928
    0.260515510    0.987563842    0.784954953
    0.760649079    0.988364407    0.780192299
    0.259931281    0.315018781    0.785730834
    0.760787581    0.315313680    0.780662724
    0.259602884    0.651888500    0.783684944
    0.759589577    0.654797633    0.779403665
    0.260987399    0.987012736    0.918601955
    0.761188300    0.987563710    0.914650259
    0.258229271    0.322511753    0.915359614
    0.757517799    0.327762382    0.908775978
    0.264095027    0.655420532    0.914834389
    0.764811628    0.652193170    0.907924720
