fcc Ge
 1.0
 5.66   0.00   0.00
 0.00   5.66   0.00
 0.00   0.00   5.66
Ge
8
Direct
 0.000000000         0.000000000         0.000000000
 0.000000000         0.500000000         0.500000000
 0.500000000         0.500000000         0.000000000
 0.500000000         0.000000000         0.500000000
 0.750000000         0.250000000         0.750000000
 0.250000000         0.250000000         0.250000000
 0.250000000         0.750000000         0.750000000
 0.750000000         0.750000000         0.250000000

