File converted from QE to VASP
    1.000000000
   10.557104240    0.000000000    0.000000000
    0.000000000   10.557104240    0.000000000
    0.000000000    0.000000000   35.721480703
Ca    Cu    Ti    O    
10     102     48     219
Direct
    0.876193519    0.005662324    0.384363018
    0.876176377    0.000600848    0.173503617
    0.378432558    0.504599206    0.384620097
    0.373948867    0.503231035    0.173489581
    0.375327961    0.001334232    0.068113134
    0.375712630    0.002198526    0.489565218
    0.376242340    0.004060220    0.279446751
    0.874326112    0.500709713    0.063828114
    0.878261570    0.515716123    0.494141770
    0.874900199    0.503340263    0.278659770
    0.125532908    0.754601050    0.383981123
    0.125718860    0.751161895    0.174515632
    0.626542652    0.256879323    0.383561455
    0.624535678    0.253079261    0.174024213
    0.128200836    0.254335784    0.383220902
    0.125493701    0.252200722    0.175001230
    0.624840185    0.755876351    0.383444923
    0.624916514    0.751928610    0.175023842
    0.874929948    0.000937153    0.070879947
    0.881456784    0.016204905    0.487945443
    0.875564745    0.003592608    0.279029616
    0.374930800    0.501031875    0.067436978
    0.375521177    0.506182108    0.491657008
    0.375970733    0.503573032    0.278988043
    0.376575674    0.005060624    0.382889010
    0.374099378    0.000886463    0.174932375
    0.876068956    0.505257057    0.384133715
    0.876635897    0.503428884    0.174729223
    0.126055067    0.744865346    0.066865075
    0.123874200    0.753786047    0.492637271
    0.125525892    0.753141179    0.279284580
    0.623742831    0.256942759    0.067283725
    0.627562780    0.257986693    0.491227265
    0.625942271    0.253927798    0.279013497
    0.123759079    0.247627111    0.069937372
    0.129497675    0.257513008    0.486798198
    0.126117487    0.253883114    0.279153137
    0.626177638    0.754235594    0.070073567
    0.624497894    0.759377328    0.487457767
    0.625840266    0.753027780    0.279316602
    0.901243045    0.074171853    0.613758219
    0.859363546    0.754737812    0.545385169
    0.903049725    0.409814364    0.618442211
    0.950167685    0.254945174    0.488579165
    0.906469102    0.740333207    0.616835326
    0.396231168    0.724188093    0.623338378
    0.904734045    0.074435843    0.746697631
    0.404219020    0.065160311    0.749218499
    0.903685976    0.401660865    0.747182565
    0.403415903    0.392180374    0.749972017
    0.903083284    0.743015300    0.746576281
    0.402922695    0.734160995    0.749046327
    0.905193378    0.073777110    0.879661781
    0.403818882    0.065312312    0.882165743
    0.905131719    0.413202090    0.876108570
    0.404110569    0.397840697    0.880157366
    0.906737192    0.747962737    0.876641935
    0.406612522    0.734310942    0.879358985
    0.904595982    0.234165626    0.680228360
    0.403867546    0.225192284    0.683301178
    0.901633203    0.570133881    0.682720459
    0.401212857    0.555412518    0.686564432
    0.900240827    0.910268478    0.680735962
    0.401885038    0.902362028    0.682953589
    0.904703402    0.238251529    0.813255370
    0.404466405    0.229127952    0.815789416
    0.905507585    0.576160420    0.811350219
    0.404157644    0.565981427    0.814059182
    0.905323514    0.911001447    0.812528944
    0.404809708    0.901145303    0.815000673
    0.898308321    0.248396107    0.941153731
    0.414999210    0.228173167    0.947911865
    0.904130772    0.576579762    0.939714923
    0.405570680    0.562559115    0.943073119
    0.905056790    0.911576508    0.946554711
    0.404704215    0.886247212    0.944943681
    0.154519067    0.075149764    0.682153289
    0.653897404    0.067982221    0.680741113
    0.150097880    0.397166290    0.682966253
    0.652606696    0.389710233    0.680946757
    0.150891726    0.743344849    0.685752800
    0.651293751    0.733179978    0.683298834
    0.154893771    0.073354102    0.815437557
    0.654745853    0.064751629    0.813166065
    0.154799945    0.406664735    0.814801254
    0.653929420    0.396724991    0.812151803
    0.155178186    0.742298238    0.814012941
    0.655208151    0.734762035    0.812164396
    0.155796430    0.088978839    0.944949760
    0.655499824    0.065921731    0.946570259
    0.153289991    0.416410257    0.943104311
    0.654549502    0.403714577    0.940237422
    0.144314261    0.749787540    0.947767589
    0.661810854    0.728675052    0.941051348
    0.154475020    0.229483832    0.613519055
    0.653802713    0.220710955    0.611979524
    0.151917324    0.569221502    0.623089368
    0.648652091    0.559424432    0.620488582
    0.151728219    0.903492078    0.618507120
    0.650030959    0.886761141    0.618616830
    0.154601996    0.237616334    0.749356489
    0.654523047    0.229951262    0.747176008
    0.152660234    0.569709334    0.748759261
    0.653328506    0.562698825    0.747048069
    0.153420818    0.910844807    0.749199576
    0.653401398    0.902213407    0.747190165
    0.154014167    0.240941105    0.880162913
    0.654270007    0.228730801    0.877737235
    0.155914490    0.579596817    0.879825001
    0.654740550    0.564463060    0.875936577
    0.157027599    0.908307057    0.881377153
    0.655477548    0.900665614    0.879218817
    0.127965402    0.986779616    0.012752929
    0.129055066    0.001288707    0.437105924
    0.125584714    0.002530244    0.227362240
    0.627860242    0.507975738    0.011858340
    0.629270991    0.503024547    0.438395007
    0.624731815    0.501304200    0.225802299
    0.389490508    0.753513295    0.014003312
    0.377983046    0.750989278    0.437163337
    0.375779410    0.752985228    0.227647946
    0.884270368    0.234944891    0.011845292
    0.882522727    0.258392905    0.434758615
    0.873148623    0.252488493    0.225303620
    0.359896958    0.247705267    0.014021859
    0.377233723    0.259672270    0.436290219
    0.376770550    0.252714338    0.226027230
    0.864939466    0.766107210    0.011790527
    0.870724440    0.755261597    0.436560208
    0.875591059    0.752467638    0.227176473
    0.126795580    0.003550859    0.120765867
    0.772849028    0.799051506    0.588972497
    0.123493122    0.001385943    0.331668440
    0.625529707    0.504860257    0.119866585
    0.607633368    0.512554202    0.547000192
    0.627344393    0.504331920    0.331609384
    0.621384996    0.014856492    0.012808171
    0.624574940    0.010555982    0.436104933
    0.625599045    0.004210846    0.225970066
    0.120482724    0.492734545    0.011670969
    0.126545802    0.507812578    0.437782124
    0.125502819    0.502672184    0.227205389
    0.377719724    0.751449346    0.120341301
    0.386443527    0.770586565    0.548463155
    0.373115425    0.751345630    0.332151852
    0.880520395    0.253721059    0.120393636
    0.871419512    0.264565665    0.540984897
    0.878782951    0.254874433    0.330457022
    0.371848949    0.252077145    0.120693040
    0.369878726    0.235729654    0.545102517
    0.377811852    0.257333412    0.331067315
    0.869970137    0.748771821    0.120136252
    0.409393608    0.064955758    0.614682999
    0.875898895    0.753204019    0.332044179
    0.623635554    0.999303615    0.121096082
    0.629711471    0.015775108    0.544669170
    0.628470186    0.005909399    0.330864065
    0.124118211    0.498030586    0.119196257
    0.143953403    0.491260065    0.546497075
    0.125018898    0.504406662    0.332327319
    0.019353750    0.131579759    0.009712202
    0.025503311    0.158554595    0.419200749
    0.026845839    0.152969528    0.211899954
    0.522206161    0.647567638    0.007715822
    0.526657314    0.657724136    0.420176725
    0.525537459    0.654346210    0.211762637
    0.026961987    0.151781824    0.138678025
    0.979332213    0.955245302    0.529843700
    0.027753719    0.155932513    0.346040890
    0.524346127    0.653011923    0.138178187
    0.515076765    0.657523904    0.552638930
    0.526992612    0.656862358    0.346452295
    0.227359312    0.353343697    0.007391312
    0.226446266    0.355255374    0.419918003
    0.223657909    0.352460358    0.211699129
    0.730594882    0.870506475    0.009326722
    0.020714799    0.515603363    0.591349901
    0.725147034    0.850933221    0.211897760
    0.224007714    0.351661127    0.138057413
    0.258215688    0.780750225    0.593149787
    0.225075648    0.353125197    0.346091557
    0.724929385    0.849586518    0.138684453
    0.732293766    0.880663550    0.546194501
    0.724345815    0.852481203    0.346291013
    0.114977040    0.941729809    0.383183006
    0.116999125    0.931796486    0.175270574
    0.617542819    0.443695062    0.383990062
    0.614595787    0.439446188    0.174573970
    0.439920860    0.266718156    0.382984518
    0.437618380    0.262765724    0.174490649
    0.939290756    0.764793725    0.384078376
    0.945084976    0.759323146    0.174636070
    0.311991510    0.744741677    0.383467450
    0.306543106    0.742998291    0.174499691
    0.812854430    0.247477623    0.384364341
    0.811372006    0.243436753    0.174807268
    0.636975027    0.069299597    0.382876786
    0.635335745    0.066348342    0.175298812
    0.135059846    0.567696855    0.383897870
    0.134334797    0.570915145    0.174314179
    0.966276057    0.904154819    0.034584302
    0.310202080    0.191745739    0.588241125
    0.964209872    0.914201467    0.238213303
    0.464546940    0.406328915    0.031725111
    0.465795852    0.417507088    0.447485335
    0.463937717    0.414144300    0.237906606
    0.959743518    0.914636949    0.111185770
    0.964274325    0.915496591    0.320318720
    0.460593279    0.415296969    0.109353633
    0.473754578    0.411890199    0.529049337
    0.464965518    0.416133065    0.320280098
    0.285113860    0.595239545    0.031629337
    0.288595283    0.594320340    0.447571375
    0.286833964    0.591781674    0.238034291
    0.783261033    0.097381705    0.034699255
    0.791977862    0.091209714    0.446245217
    0.786961209    0.091734791    0.238171382
    0.289284640    0.587497440    0.109175537
    0.275207345    0.599399077    0.529427463
    0.287360835    0.592694891    0.320408991
    0.790622720    0.087821978    0.111328958
    0.778439462    0.111102808    0.520215410
    0.787759799    0.093041216    0.320424093
    0.271854108    0.083068008    0.014581096
    0.292070184    0.090720874    0.422046740
    0.285979178    0.091696904    0.215927173
    0.777721488    0.604127644    0.010943279
    0.788531007    0.594452558    0.425205105
    0.786642378    0.592229340    0.215835176
    0.477832168    0.918217208    0.014490242
    0.461784738    0.919751842    0.422169070
    0.464313316    0.913181380    0.216015101
    0.971122191    0.397086331    0.010838061
    0.966149716    0.417963364    0.425271162
    0.965057798    0.413911435    0.215851928
    0.225309415    0.839861008    0.033355874
    0.223414624    0.851653375    0.453167645
    0.224563780    0.851651801    0.242415930
    0.717908333    0.349502922    0.029743470
    0.727919258    0.356551100    0.454324758
    0.724386056    0.351979200    0.242071288
    0.217500577    0.841816210    0.105420918
    0.228286745    0.850461426    0.527997633
    0.224039678    0.852453079    0.316300823
    0.720832056    0.347989340    0.104367805
    0.728343081    0.357051066    0.531076565
    0.724639862    0.352602979    0.316341470
    0.130553562    0.061985789    0.072737055
    0.137407319    0.083117700    0.482183295
    0.136678752    0.065947768    0.279320587
    0.633313494    0.568778750    0.071415501
    0.630796833    0.578231452    0.487316048
    0.635738371    0.565968964    0.279227168
    0.307199957    0.239320801    0.071432940
    0.308153538    0.249528370    0.485621942
    0.313046673    0.243230837    0.279274913
    0.809357359    0.744321536    0.071492565
    0.805607920    0.752515759    0.487209955
    0.813901611    0.743108871    0.279254717
    0.287715641    0.088838340    0.133699140
    0.273728412    0.089593796    0.542384267
    0.289705837    0.090964021    0.343585486
    0.786846972    0.589187813    0.133657910
    0.770837057    0.609349068    0.547921619
    0.787521671    0.593283277    0.342635119
    0.462093254    0.913805580    0.133767986
    0.474263900    0.922060213    0.546519757
    0.462552447    0.918124364    0.343555347
    0.963729818    0.414166669    0.133636300
    0.979031996    0.401065661    0.545677757
    0.964581131    0.415711942    0.342721438
    0.524622033    0.161761610    0.033596137
    0.530976798    0.160195408    0.450907698
    0.526630499    0.154455591    0.242072616
    0.031807670    0.651795355    0.029309906
    0.028126580    0.657129572    0.454115713
    0.026823976    0.654078464    0.242320042
    0.532311160    0.160436891    0.105815138
    0.521122488    0.159918600    0.524415578
    0.527518328    0.155746942    0.315949114
    0.028816766    0.654370858    0.103816846
    0.014426871    0.672938090    0.529430294
    0.027189164    0.655606588    0.316518473
    0.442517405    0.763132312    0.071352494
    0.445096288    0.766584208    0.486630598
    0.437900809    0.763990596    0.279325887
    0.940702672    0.257662073    0.071745471
    0.399057130    0.394852242    0.621094343
    0.938519779    0.264078702    0.279366372
    0.619721002    0.939107739    0.073071666
    0.613654298    0.938561652    0.484143088
    0.615289010    0.940458610    0.279521800
    0.116244014    0.433859231    0.070988316
    0.123167735    0.436906981    0.487473801
    0.115660289    0.441800577    0.279202584
    0.037398901    0.116387375    0.584821623
    0.021157945    0.166579066    0.966978776
    0.552286576    0.092981120    0.583678374
    0.521370067    0.097641320    0.979154742
    0.726214382    0.853665754    0.419589782
    0.034121654    0.516199367    0.971358584
    0.527476667    0.465650318    0.591282362
    0.522904085    0.462407737    0.971791747
    0.014827407    0.859049915    0.587634394
    0.037970761    0.881580434    0.979396951
    0.520878121    0.799824987    0.596837030
    0.538086225    0.807844637    0.967179760
    0.030631855    0.159687410    0.714668178
    0.529923227    0.142536705    0.715264762
    0.027749386    0.487079842    0.714867058
    0.529759254    0.468688461    0.716124905
    0.025586582    0.834480157    0.715458059
    0.525642076    0.816921450    0.715697433
    0.028820009    0.159419955    0.847219438
    0.528207722    0.140213260    0.847478116
    0.031887520    0.500474602    0.845626103
    0.527883804    0.475962786    0.845730554
    0.032989671    0.833941668    0.846009112
    0.531915875    0.815039013    0.846328147
    0.964737495    0.918601106    0.448927771
    0.276798386    0.182653581    0.975794119
    0.794526559    0.178696363    0.581533447
    0.757414217    0.197459913    0.971694274
    0.275766102    0.485987904    0.597986035
    0.278785944    0.490705903    0.969614588
    0.775048470    0.486559135    0.594033353
    0.776469472    0.494999090    0.963308594
    0.234745454    0.349681442    0.553539087
    0.282488785    0.795903547    0.975677052
    0.132028404    0.978965538    0.553266731
    0.802247740    0.782505824    0.971562953
    0.279151375    0.149932206    0.717079168
    0.779637082    0.152917057    0.712778499
    0.274683793    0.473795455    0.718480622
    0.776848083    0.479286012    0.713668722
    0.278438647    0.824554887    0.717355414
    0.777718972    0.823046812    0.713145096
    0.279878125    0.151258631    0.849806563
    0.780405862    0.150018071    0.845261834
    0.279887126    0.488059101    0.848129033
    0.779734358    0.488147214    0.841895546
    0.280085778    0.821054922    0.848509128
    0.779816031    0.824775297    0.844154804
    0.025294521    0.997247763    0.650106133
    0.528812459    0.977714210    0.650279596
    0.028959100    0.315198032    0.646886454
    0.528440758    0.295766495    0.648313600
    0.027106223    0.665294831    0.652113873
    0.522361381    0.641388185    0.653757944
    0.029551820    0.998215738    0.780961667
    0.529191860    0.979761427    0.781214769
    0.029563234    0.325198371    0.781338083
    0.529104855    0.305940414    0.781544430
    0.029819327    0.663424521    0.779578275
    0.529162263    0.646495125    0.780507789
    0.032353120    0.997364607    0.912434381
    0.528750945    0.976271195    0.912597711
    0.026341042    0.331750217    0.910565756
    0.530679566    0.303992297    0.911733125
    0.029566187    0.674097953    0.911215207
    0.533744952    0.645381381    0.910467008
    0.279689624    0.989129520    0.649264650
    0.775799300    0.990160817    0.646066811
    0.276244188    0.310772989    0.652804063
    0.779092453    0.313434697    0.647321626
    0.272872281    0.644009975    0.657084198
    0.775331223    0.650216899    0.650320564
    0.279563129    0.987563842    0.783359527
    0.779696698    0.988364407    0.778623538
    0.278978900    0.315018781    0.784131063
    0.779835200    0.315313680    0.779091329
    0.278650503    0.651888500    0.782096629
    0.778637196    0.654797633    0.777839320
    0.280035018    0.987012736    0.916258256
    0.780235919    0.987563710    0.912328685
    0.277276890    0.322511753    0.913034069
    0.776565418    0.327762382    0.906487293
    0.283142646    0.655420532    0.912511784
    0.783859247    0.652193170    0.905640802
