File converted from QE to VASP          
   10.5571042400000     
     1.0000000000000000    0.0000000000000000    0.0000000000000000
     0.0000000000000000    1.0000000000000000    0.0000000000000000
     0.0000000000000000    0.0000000000000000    3.4599284140000006
   Ca   Cu   Ti   O 
    10   102    48   219
Direct
  0.8761935192486137  0.0056623240168339  0.3758885734289251
  0.8761763768301268  0.0006008477338460  0.1696782058380527
  0.3784325584711592  0.5045992062855669  0.3761399846275310
  0.3739488673588918  0.5032310350740566  0.1696644794163830
  0.3753279614650776  0.0013342324680152  0.0666113746330584
  0.3757126300262075  0.0021985256501534  0.4787712731363489
  0.3762423399521418  0.0040602200134169  0.2732855025260770
  0.8743261117136804  0.5007097129777437  0.0624208302770083
  0.8782615702447265  0.5157161229647637  0.4832469218505676
  0.8749001993588685  0.5033402632790829  0.2725158733635359
  0.1255329078744286  0.7546010502474580  0.3755150987911808
  0.1257188597871127  0.7511618945446845  0.1706679075117205
  0.6265426520016911  0.2568793233991398  0.3751046837352398
  0.6245356782645162  0.2530792605753965  0.1701873236719443
  0.1282008357925461  0.2543357839568315  0.3747716395723316
  0.1254937011378171  0.2522007222219105  0.1711427994742898
  0.6248401848510422  0.7558763505249179  0.3749907206122549
  0.6249165140603401  0.7519286098793844  0.1711649130311380
  0.8749299477756279  0.0009371527499732  0.0693171839870714
  0.8814567835161828  0.0162049045965880  0.4771872110453413
  0.8755647453228300  0.0035926081991484  0.2728775649228826
  0.3749308004490181  0.5010318752057571  0.0659501263849763
  0.3755211772009908  0.5061821080310113  0.4808169436684857
  0.3759707325492566  0.5035730322335588  0.2728369084576344
  0.3765756744065584  0.0050606235572425  0.3744470647379010
  0.3740993781433894  0.0008864631320661  0.1710754619303175
  0.8760689555162754  0.5052570568916693  0.3756643262406229
  0.8766358972516384  0.5034288839801757  0.1708767894052135
  0.1260550674930702  0.7448653464940289  0.0653908323081051
  0.1238742003789604  0.7537860473195567  0.4817755941429757
  0.1255258916387143  0.7531411794695054  0.2731269076145857
  0.6237428314988335  0.2569427593431815  0.0658002515104743
  0.6275627795780810  0.2579866932083389  0.4803966753268353
  0.6259422710976243  0.2539277984510462  0.2728618014626152
  0.1237590786240889  0.2476271112051682  0.0683953913690557
  0.1294976745213617  0.2575130083095671  0.4760652605056308
  0.1261174872273959  0.2538831137704287  0.2729983625393391
  0.6261776377722945  0.7542355943589928  0.0685285830176261
  0.6244978937664468  0.7593773279264008  0.4767102875596891
  0.6258402660213777  0.7530277796323283  0.2731582239971236
  0.9964811400697819  0.0836956628395158  0.6088998937373610
  0.5046317028950702  0.0744795673826550  0.6098042840331829
  0.9982878203056871  0.4193381734586760  0.6134806126420682
  0.4942952254251358  0.4043760510367957  0.6160742709269703
  0.0017071967398045  0.7498570164939822  0.6119091568507609
  0.4914692630596966  0.7337119029189124  0.6182688288152693
 -0.0000278594071378  0.0839596525195017  0.7389082551083398
  0.4994571153246075  0.0746841209046918  0.7413735424550308
  0.9989240712560497  0.4111846742983222  0.7393824964202536
  0.4986539983312328  0.4017041837032831  0.7421104464838837
  0.9983213790291702  0.7525391097595542  0.7387895804462664
  0.4981607898894513  0.7436848043417595  0.7412051667791352
  0.0004314729177928  0.0833009192129402  0.8689408077376141
  0.4990569771852542  0.0748361218143622  0.8713895625946204
  0.0003698142104869  0.4227258993148952  0.8654659382795609
  0.4993486647258832  0.4073645065694398  0.8694254667996038
  0.0019752872132183  0.7574865461748669  0.8659875435739864
  0.5018506170645305  0.7438347510944335  0.8686446885031174
 -0.0001659222627150  0.2436894350811631  0.6739044999155271
  0.4991056411357960  0.2347160932823583  0.6769095677292584
  0.9968712983547876  0.5796576909958011  0.6763416525774568
  0.4964509518871841  0.5649363276198932  0.6801008741611346
  0.9954789223112476  0.9197922873523421  0.6744009100828323
  0.4971231329221835  0.9118858374678224  0.6765696424361138
  0.9999414971012605  0.2477753386371034  0.8039985272943687
  0.4997044997580931  0.2386517610548533  0.8064767024135421
  0.0007456798598588  0.5856842295716876  0.8021353812156220
  0.4993957390868747  0.5755052363801630  0.8047846164149859
  0.0005616090948522  0.9205252563555812  0.8032881173211981
  0.5000478035231090  0.9106691128929232  0.8057053494797373
  0.9935464162507613  0.2579199167598453  0.9290769818807311
  0.5102373052860053  0.2376969761842620  0.9356861132855518
  0.9993688670749300  0.5861035716041237  0.9276698973102296
  0.5008087757150037  0.5720829244096775  0.9309540517652993
  0.0002948851786644  0.9211003171809636  0.9343588809766858
  0.4999423098051355  0.8957710216234070  0.9327833717942638
  0.2497571626428116  0.0846735737619111  0.6757869874433743
  0.7491354992570574  0.0775060301025069  0.6744059475961246
  0.2453359748781855  0.4066900995409141  0.6765820277410806
  0.7478447907429820  0.3992340430203443  0.6746070572597306
  0.2461298209278117  0.7528686585229202  0.6793071361750431
  0.7465318465611530  0.7427037873717863  0.6769072754327609
  0.2501318662935447  0.0828779112745733  0.8061326009917689
  0.7499839480544802  0.0742754380792932  0.8039111911386798
  0.2500380405541417  0.4161885448570032  0.8055103271674358
  0.7491675149353023  0.4062488005176479  0.8029192913034190
  0.2504162812169357  0.7518220477617779  0.8047393954710652
  0.7504462465653980  0.7442858446801129  0.8029316073682914
  0.2510345253322459  0.0985026488494934  0.9327893165854356
  0.7507379194540419  0.0754455409278705  0.9343740865309478
  0.2485280866252455  0.4259340666634148  0.9309845555697900
  0.7497875969661395  0.4132383861442117  0.9281808765024920
  0.2395523560887766  0.7593113492875458  0.9355450175191393
  0.7570489488433260  0.7381988614074244  0.9289768566559672
  0.2497131152619774  0.2390076417789654  0.6086660024205679
  0.7490408086970159  0.2302347645573939  0.6071604154872802
  0.2471554188878588  0.5787453119240675  0.6180253092091527
  0.7438901860311891  0.5689482418942065  0.6154818657934275
  0.2469663139459823  0.9130158879328506  0.6135440908944699
  0.7452690545610066  0.8962849500968553  0.6136513821512167
  0.2498400910956158  0.2471401432450776  0.7415084902062687
  0.7497611424987193  0.2394750715692210  0.7393760839539687
  0.2478983293546925  0.5792331434295224  0.7409244297606783
  0.7485666017309774  0.5722226343841905  0.7392509658735795
  0.2486589133370402  0.9203686161584702  0.7413550367709177
  0.7486394931859355  0.9117372165808756  0.7393899291314817
  0.2492522621208718  0.2504649148091925  0.8694308910813584
  0.7495081021008886  0.2382546107723440  0.8670586949848588
  0.2511525851307668  0.5891206266416000  0.8691004298179804
  0.7499786450753784  0.5739868699374133  0.8652977379872995
  0.2522656939909550  0.9178308668218516  0.8706183599093097
  0.7507156432463855  0.9101894240161714  0.8685076101890609
  0.1279654018717908  0.9867796159158104  0.0124717522808139
  0.1290550662624893  0.0012887072364183  0.4274686028648284
  0.1255847144281569  0.0025302439668006  0.2223493525236657
  0.6278602420983775  0.5079757378051813  0.0115968870971857
  0.6292709911234659  0.5030245470273118  0.4287292644617671
  0.6247318154433602  0.5013042004805902  0.2208238053460516
  0.3894905077357258  0.7535132953586005  0.0136945671142925
  0.3779830457312366  0.7509892778206319  0.4275247500265287
  0.3757794101161406  0.7529852283206711  0.2226287588213836
  0.8842703676318239  0.2349448910493523  0.0115841263184182
  0.8825227268096731  0.2583929053740739  0.4251730479279205
  0.8731486229093203  0.2524884930503310  0.2203361211675684
  0.3598969582549771  0.2477052671858279  0.0137127046477375
  0.3772337225004989  0.2596722704190315  0.4266708824558788
  0.3767705497435084  0.2527143375000022  0.2210437769279630
  0.8649394663125175  0.7661072102537607  0.0115305692986301
  0.8707244396840866  0.7552615973343498  0.4269349186600063
  0.8755910585186769  0.7524676382865261  0.2221676810142151
  0.1267955799011506  0.0035508592756268  0.1181032189830197
  0.1320284042703310  0.9789655376873527  0.5410682940899330
  0.1234931223074879  0.0013859429857612  0.3243558068217450
  0.6255297074724095  0.5048602568073102  0.1172237642534530
  0.6076333684306487  0.5125542016112687  0.5349399199198939
  0.6273443928070142  0.5043319201522242  0.3242980533344320
  0.6213849964900989  0.0148564923249339  0.0125257759116595
  0.6245749395877122  0.0105559818993745  0.4264896817409976
  0.6255990447057743  0.0042108462598645  0.2209878727096128
  0.1204827244092348  0.4927345453806439  0.0114136472761941
  0.1265458022876617  0.5078125780107656  0.4281298943220223
  0.1255028191634850  0.5026721841081490  0.2221959593443182
  0.3777197237001159  0.7514493458365993  0.1176880133152215
  0.3864435272449926  0.7705865646645693  0.5363706277816780
  0.3731154254276445  0.7513456303685404  0.3248285605728591
  0.8805203952685058  0.2537210587559190  0.1177391948471637
  0.8714195124910944  0.2645656646963899  0.5290572498143661
  0.8787829511115167  0.2548744331827693  0.3231710981997018
  0.3718489492649216  0.2520771451381107  0.1180319975348003
  0.3698787258837637  0.2357296535782337  0.5330840853105028
  0.3778118519280757  0.2573334119256370  0.3237679356633044
  0.8699701369704876  0.7487718214126933  0.1174874855979014
  0.8593635459261689  0.7547378115359791  0.5333605051215330
  0.8758988946255922  0.7532040187053045  0.3247232618086311
  0.6236355541229811  0.9993036152159305  0.1184261526052641
  0.6297114713455112  0.0157751076012625  0.5326602925730979
  0.6284701855109447  0.0059093990896598  0.3235691667801721
  0.1241182113253241  0.4980305857541130  0.1165682151675559
  0.1439534034601265  0.4912600646612150  0.5344478952226333
  0.1250188982305914  0.5044066622064239  0.3250001594359069
  0.0193537496754745  0.1315797594329538  0.0094980669580046
  0.0255033113769734  0.1585545953625333  0.4099582018550956
  0.0268458392084618  0.1529695277580454  0.2072279787825168
  0.5222061605469539  0.6475676377961539  0.0075457035195737
  0.5266573142754317  0.6577241362891594  0.4109126599092428
  0.5255374594717572  0.6543462100198419  0.2070936902049456
  0.0269619868514650  0.1517818239446519  0.1356204491854417
  0.9793322125539595  0.9552453018926205  0.5181616947192118
  0.0277537191283633  0.1559325129380607  0.3384113734519524
  0.5243461268073171  0.6530119230054218  0.1351316310751190
  0.5150767647401907  0.6575239036112305  0.5404543344483693
  0.5269926122642602  0.6568623575273147  0.3388137073318336
  0.2273593120585148  0.3533436966292771  0.0072283477626284
  0.2264462659294724  0.3552553741170875  0.4106596416016453
  0.2236579086104384  0.3524603578190028  0.2070315818584329
  0.7305948823101960  0.8705064753263205  0.0091210863742880
  0.7262143823384944  0.8536657542781159  0.4103386572096238
  0.7251470337158994  0.8509332208148802  0.2072258339410829
  0.2240077138023189  0.3516611268772161  0.1350135203527573
  0.2347454540121208  0.3496814419175006  0.5413346451806726
  0.2250756480527173  0.3531251965996361  0.3384609228230768
  0.7249293851076026  0.8495865176250419  0.1356267349167842
  0.7322937657350594  0.8806635500512999  0.5341519923956863
  0.7243458147304821  0.8524812034321226  0.3386559816995559
  0.1149770402077642  0.9417298094430201  0.3747345792272051
  0.1169991247893488  0.9317964861846182  0.1714062041658311
  0.6175428193738118  0.4436950620194698  0.3755238405526137
  0.6145957869040508  0.4394461882516833  0.1707249597924536
  0.4399208599529791  0.2667181564070265  0.3745404666605546
  0.4376183797880291  0.2627657235358994  0.1706434751844573
  0.9392907555850293  0.7647937245504647  0.3756102072321292
  0.9450849759940925  0.7593231458981554  0.1707856904133296
  0.3119915099787061  0.7447416774412859  0.3750127516437252
  0.3065431061247205  0.7429982905723461  0.1706523175765791
  0.8128544299592103  0.2474776230947568  0.3758898675686244
  0.8113720059216420  0.2434367528924327  0.1709531131391147
  0.6369750272124399  0.0692995973928270  0.3744351106081988
  0.6353357451469248  0.0663483422708917  0.1714338196831010
  0.1350598458072544  0.5676968554379868  0.3754336815693682
  0.1343347966717581  0.5709151451681381  0.1704708960940021
  0.9662760574222142  0.9041548193872996  0.0338217868328264
  0.9647374950786348  0.9186011057703104  0.4390298018785670
  0.9642098718552261  0.9142014669370960  0.2329611707213591
  0.4645469398199850  0.4063289153095305  0.0310256348631066
  0.4657958521661738  0.4175070875586348  0.4376191685736029
  0.4639377170225067  0.4141443000452771  0.2326612360197867
  0.9597435182307876  0.9146369486595055  0.1087343434340736
  0.9642743251526278  0.9154965909132354  0.3132563260928292
  0.4605932793471756  0.4152969692873757  0.1069426013022836
  0.4737545781295183  0.4118901987756946  0.5173848456518787
  0.4649655183540736  0.4161330648219689  0.3132185552536981
  0.2851138596896491  0.5952395451414125  0.0309319729367046
  0.2885952831517118  0.5943203402402708  0.4377033113214157
  0.2868339642674418  0.5917816738313539  0.2327861057628006
  0.7832610333579650  0.0973817050983351  0.0339342052702310
  0.7919778616935003  0.0912097136314787  0.4364063923897848
  0.7869612092492371  0.0917347912379242  0.2329201745256726
  0.2892846400658957  0.5874974397079880  0.1067684321332438
  0.2752073446535138  0.5993990774616108  0.5177546345061703
  0.2873608347485261  0.5926948910148366  0.3133446065938373
  0.7906227201860254  0.0878219784801503  0.1088743745641880
  0.7784394621669084  0.1111028079053264  0.5087456894939728
  0.7877597989945367  0.0930412158074568  0.3133593754571473
  0.2718541080818043  0.0830680078576823  0.0142596112749070
  0.2920701837459583  0.0907208744649418  0.4127414439859233
  0.2859791775361996  0.0916969035748673  0.2111664061940648
  0.7777214883499757  0.6041276435385124  0.0107020017994093
  0.7885310068740079  0.5944525584540531  0.4158301736953273
  0.7866423778490176  0.5922293398169514  0.2110764372161995
  0.4778321681881201  0.9182172079586822  0.0141707611805492
  0.4617847378759336  0.9197518417575667  0.4128610775813806
  0.4643133162284273  0.9131813804595277  0.2112523956441455
  0.9711221909314569  0.3970863307621969  0.0105991027251866
  0.9661497161887493  0.4179633638101369  0.4158947746462435
  0.9650577983183355  0.4139114352229041  0.2110928201476531
  0.2253094153391667  0.8398610080250899  0.0326204434483853
  0.2234146239685158  0.8516533748619338  0.4431761945846994
  0.2245637800665382  0.8516518007950641  0.2370711378648790
  0.7179083332878515  0.3495029220649974  0.0290876852365891
  0.7279192584909828  0.3565510998309157  0.4443077958197419
  0.7243860562988647  0.3519792004041845  0.2367340951487258
  0.2175005766800302  0.8418162099753643  0.1030965948602213
  0.2282867453894164  0.8504614255258435  0.5163563296297464
  0.2240396784790828  0.8524530788106708  0.3093270157550495
  0.7208320559011798  0.3479893400071843  0.1020667011503756
  0.7283430805193624  0.3570510663651972  0.5193673771708770
  0.7246398616433348  0.3526029794127833  0.3093667659581513
  0.1305535624094704  0.0619857891105065  0.0711333468030989
  0.1374073190536911  0.0831176996119617  0.4715521072531744
  0.1366787519469995  0.0659477680347371  0.2731621203391152
  0.6333134937274306  0.5687787497473958  0.0698409303254916
  0.6307968332645020  0.5782314523673873  0.4765716931176398
  0.6357383711474969  0.5659689640400818  0.2730707617382280
  0.3071999569518427  0.2393208009246871  0.0698579853473111
  0.3081535381134965  0.2495283702082798  0.4749149387209497
  0.3130466733164776  0.2432308373898745  0.2731174533189659
  0.8093573594973039  0.7443215362738913  0.0699162954113589
  0.8056079195459813  0.7525157585713552  0.4764679397984636
  0.8139016108918528  0.7431088707341034  0.2730977029963711
  0.2877156410178899  0.0888383401138648  0.1307513382416677
  0.2737284121261431  0.0895937958480476  0.5304257667052842
  0.2897058372951135  0.0909640214841197  0.3360101061864217
  0.7868469719491282  0.5891878131475804  0.1307110178460499
  0.7708370567622316  0.6093490681219584  0.5358410310510476
  0.7875216710594216  0.5932832767163772  0.3350806929668209
  0.4620932537462790  0.9138055802447884  0.1308186661177376
  0.4742638999546283  0.9220602131392887  0.5344700778556414
  0.4625524468466005  0.9181243642946793  0.3359806312699145
  0.9637298180932793  0.4141666686787261  0.1306898842466903
  0.9790319963670158  0.4010656613755388  0.5336466415633779
  0.9645811307376218  0.4157119424671412  0.3351651084745922
  0.5246220333216726  0.1617616102868231  0.0328554086918683
  0.5309767976702040  0.1601954080302579  0.4409660754222006
  0.5266304994142915  0.1544555913655089  0.2367353937240463
  0.0318076700594033  0.6517953546395602  0.0286636810212220
  0.0281265798463691  0.6571295716243681  0.4441033602210887
  0.0268239764340705  0.6540784644432307  0.2369773640429824
  0.5323111604397629  0.1604368909345985  0.1034821237751408
  0.5211224875341097  0.1599186001596617  0.5128532515219599
  0.5275183284383821  0.1557469421539303  0.3089830610995091
  0.0288167657508421  0.6543708582059607  0.1015278901624963
  0.0144268710287618  0.6729380900572356  0.5177574037014617
  0.0271891636966496  0.6556065875816967  0.3095398667693454
  0.4425174053130924  0.7631323124992164  0.0697793123582909
  0.4450962876675069  0.7665842075271666  0.4759013555762605
  0.4379008087641580  0.7639905962792537  0.2731673036823524
  0.9407026720409981  0.2576620725594138  0.0701636248609216
  0.9501676852349491  0.2549451736621757  0.4778069605999438
  0.9385197788215587  0.2640787021643005  0.2732068965763900
  0.6197210019465422  0.9391077393833333  0.0714605806114974
  0.6136542980002868  0.9385616524804116  0.4734686906256270
  0.6152890096288810  0.9404586099933727  0.2733588969469265
  0.1162440139702089  0.4338592305750433  0.0694231640419498
  0.1231677352837991  0.4369069813318129  0.4767259683372637
  0.1156602889395443  0.4418005771299589  0.2730467189324050
  0.1326369965190730  0.1259111844451252  0.5806012919585118
  0.1163960403554415  0.1761028755603632  0.9543326363958402
  0.6475246712730420  0.1025049299827954  0.5794832497435061
  0.6166081617557100  0.1071651298560193  0.9662401460603390
  0.1159528941067579  0.5251271728969992  0.5869856343908402
  0.1293597488519812  0.5257231768313587  0.9586158784836291
  0.6227147622129036  0.4751741271624084  0.5869195850893302
  0.6181421805533203  0.4719315465896687  0.9590394907718409
  0.1100655018863321  0.8685737241373759  0.5833520471210354
  0.1332088562999156  0.8911042438657094  0.9664770152969195
  0.6161162159863737  0.8093487968769750  0.5923517829518912
  0.6333243200494522  0.8173684466711461  0.9545291884447720
  0.1258699505713329  0.1692112196530193  0.7075849881098037
  0.6251613220202757  0.1520605141759045  0.7081684179273839
  0.1229874809433234  0.4966036516253822  0.7077794831199623
  0.6249973489153960  0.4782122700288989  0.7090095965998325
  0.1208246772718087  0.8440039667323098  0.7083574530334531
  0.6208801713649995  0.8264452594819945  0.7085915494700707
  0.1240581046748005  0.1689437649658394  0.8372137545526325
  0.6234458175768601  0.1497370691695977  0.8374667295561395
  0.1271256152257093  0.5099984112436940  0.8356555498067868
  0.6231218987973113  0.4854865952203949  0.8357576975772384
  0.1282277662227843  0.8434654779150903  0.8360301141242757
  0.6271539700255282  0.8245628227531479  0.8363421146448148
  0.4054401757148414  0.2012695486708450  0.5839454010990917
  0.3720364809726140  0.1921773901176459  0.9629536185614116
  0.8897646546120110  0.1882201721936689  0.5773856143657139
  0.8526523118443237  0.2069837225953015  0.9589441665718329
  0.3710041972015533  0.4955117131162414  0.5934754549282204
  0.3740240393633979  0.5002297130117226  0.9569103339293090
  0.8702865653674128  0.4960829448562251  0.5896099217505295
  0.8717075674098173  0.5045228998187372  0.9507433748593744
  0.3534537829972277  0.7902740348742339  0.5887458370130645
  0.3777268799518799  0.8054273569165726  0.9628391320811968
  0.8680871237093223  0.8085753158740473  0.5846606475092523
  0.8974858350934634  0.7920296330276990  0.9588157407417348
  0.3743894704010132  0.1594560157395231  0.7099428203595859
  0.8748751772533767  0.1624408664406836  0.7057369721720063
  0.3699218882210047  0.4833192646643589  0.7113133744150264
  0.8720861783019057  0.4888098211098355  0.7066075681609397
  0.3736767422611538  0.8340786964646419  0.7102129759352435
  0.8729570668543121  0.8325706216320506  0.7060954870578917
  0.3751162206292952  0.1607824400583121  0.8397438387731346
  0.8756439577103695  0.1595418800305050  0.8352993122268434
  0.3751252209616333  0.4975829100534576  0.8381032947091346
  0.8749724529947107  0.4976710231220938  0.8320072439641816
  0.3753238734731347  0.8305787315773423  0.8384750097185041
  0.8750541265215263  0.8342991060521601  0.8342166893297064
  0.1205326159837687  0.0067715728660056  0.6444464077760442
  0.6240505543848693  0.9872380200122689  0.6446160463576798
  0.1241971953994440  0.3247218414629309  0.6412977169285861
  0.6236788534988399  0.3052903040617326  0.6426933969977442
  0.1223443179228527  0.6748186406295099  0.6464098812672295
  0.6175994757918239  0.6509119943006401  0.6480177042861868
  0.1247899150320615  0.0077395477031808  0.7724168367124651
  0.6244299555471997  0.9892852366889997  0.7726643580227073
  0.1248013289732833  0.3347221801383929  0.7727849536212871
  0.6243429505639022  0.3154642236385700  0.7729867509991485
  0.1250574223930415  0.6729483306058102  0.7710639452581723
  0.6244003582371453  0.6560189349448398  0.7719729659492057
  0.1275912149553636  0.0068884165774779  0.9009908372359405
  0.6239890401633421  0.9857950048908709  0.9011505663967045
  0.1215791371836735  0.3412740268023206  0.8991634120259538
  0.6259176613140437  0.3135161063285881  0.9003050420619447
  0.1248042819623064  0.6836217622179102  0.8997985436783468
  0.6289830476509202  0.6549051905673008  0.8990668409956479
  0.3749277194801640  0.9986533295632435  0.6436234784456211
  0.8710373951850542  0.9996846260888513  0.6404961453796356
  0.3714822832161006  0.3202967983533342  0.6470848541902483
  0.8743305480279162  0.3229585061942440  0.6417232939302294
  0.3681103763855463  0.6535337848969600  0.6512706204612092
  0.8705693184762215  0.6597407087767057  0.6446561111226283
  0.3748012244222546  0.9970876519239257  0.7747618279921654
  0.8749347928200919  0.9978882160633566  0.7701302584197021
  0.3742169954540986  0.3245425906290800  0.7755163536581818
  0.8750732949041083  0.3248374892376021  0.7705877359596924
  0.3738885983667644  0.6614123094712335  0.7735267745712096
  0.8738752917095149  0.6643214426204237  0.7693633306385868
  0.3752731136717652  0.9965365453340710  0.9047304037158490
  0.8754740144251364  0.9970875192281229  0.9008874720305013
  0.3725149855536927  0.3320355620776598  0.9015773028356092
  0.8718035136215325  0.3372861911213493  0.8951748711594856
  0.3783807417140807  0.6649443410808686  0.9010665337803201
  0.8790973419526273  0.6617169792094751  0.8943470427457574
 
  0.00000000E+00  0.00000000E+00  0.00000000E+00
  0.00000000E+00  0.00000000E+00  0.00000000E+00
  0.00000000E+00  0.00000000E+00  0.00000000E+00
  0.00000000E+00  0.00000000E+00  0.00000000E+00
  0.00000000E+00  0.00000000E+00  0.00000000E+00
  0.00000000E+00  0.00000000E+00  0.00000000E+00
  0.00000000E+00  0.00000000E+00  0.00000000E+00
  0.00000000E+00  0.00000000E+00  0.00000000E+00
  0.00000000E+00  0.00000000E+00  0.00000000E+00
  0.00000000E+00  0.00000000E+00  0.00000000E+00
  0.00000000E+00  0.00000000E+00  0.00000000E+00
  0.00000000E+00  0.00000000E+00  0.00000000E+00
  0.00000000E+00  0.00000000E+00  0.00000000E+00
  0.00000000E+00  0.00000000E+00  0.00000000E+00
  0.00000000E+00  0.00000000E+00  0.00000000E+00
  0.00000000E+00  0.00000000E+00  0.00000000E+00
  0.00000000E+00  0.00000000E+00  0.00000000E+00
  0.00000000E+00  0.00000000E+00  0.00000000E+00
  0.00000000E+00  0.00000000E+00  0.00000000E+00
  0.00000000E+00  0.00000000E+00  0.00000000E+00
  0.00000000E+00  0.00000000E+00  0.00000000E+00
  0.00000000E+00  0.00000000E+00  0.00000000E+00
  0.00000000E+00  0.00000000E+00  0.00000000E+00
  0.00000000E+00  0.00000000E+00  0.00000000E+00
  0.00000000E+00  0.00000000E+00  0.00000000E+00
  0.00000000E+00  0.00000000E+00  0.00000000E+00
  0.00000000E+00  0.00000000E+00  0.00000000E+00
  0.00000000E+00  0.00000000E+00  0.00000000E+00
  0.00000000E+00  0.00000000E+00  0.00000000E+00
  0.00000000E+00  0.00000000E+00  0.00000000E+00
  0.00000000E+00  0.00000000E+00  0.00000000E+00
  0.00000000E+00  0.00000000E+00  0.00000000E+00
  0.00000000E+00  0.00000000E+00  0.00000000E+00
  0.00000000E+00  0.00000000E+00  0.00000000E+00
  0.00000000E+00  0.00000000E+00  0.00000000E+00
  0.00000000E+00  0.00000000E+00  0.00000000E+00
  0.00000000E+00  0.00000000E+00  0.00000000E+00
  0.00000000E+00  0.00000000E+00  0.00000000E+00
  0.00000000E+00  0.00000000E+00  0.00000000E+00
  0.00000000E+00  0.00000000E+00  0.00000000E+00
  0.00000000E+00  0.00000000E+00  0.00000000E+00
  0.00000000E+00  0.00000000E+00  0.00000000E+00
  0.00000000E+00  0.00000000E+00  0.00000000E+00
  0.00000000E+00  0.00000000E+00  0.00000000E+00
  0.00000000E+00  0.00000000E+00  0.00000000E+00
  0.00000000E+00  0.00000000E+00  0.00000000E+00
  0.00000000E+00  0.00000000E+00  0.00000000E+00
  0.00000000E+00  0.00000000E+00  0.00000000E+00
  0.00000000E+00  0.00000000E+00  0.00000000E+00
  0.00000000E+00  0.00000000E+00  0.00000000E+00
  0.00000000E+00  0.00000000E+00  0.00000000E+00
  0.00000000E+00  0.00000000E+00  0.00000000E+00
  0.00000000E+00  0.00000000E+00  0.00000000E+00
  0.00000000E+00  0.00000000E+00  0.00000000E+00
  0.00000000E+00  0.00000000E+00  0.00000000E+00
  0.00000000E+00  0.00000000E+00  0.00000000E+00
  0.00000000E+00  0.00000000E+00  0.00000000E+00
  0.00000000E+00  0.00000000E+00  0.00000000E+00
  0.00000000E+00  0.00000000E+00  0.00000000E+00
  0.00000000E+00  0.00000000E+00  0.00000000E+00
  0.00000000E+00  0.00000000E+00  0.00000000E+00
  0.00000000E+00  0.00000000E+00  0.00000000E+00
  0.00000000E+00  0.00000000E+00  0.00000000E+00
  0.00000000E+00  0.00000000E+00  0.00000000E+00
  0.00000000E+00  0.00000000E+00  0.00000000E+00
  0.00000000E+00  0.00000000E+00  0.00000000E+00
  0.00000000E+00  0.00000000E+00  0.00000000E+00
  0.00000000E+00  0.00000000E+00  0.00000000E+00
  0.00000000E+00  0.00000000E+00  0.00000000E+00
  0.00000000E+00  0.00000000E+00  0.00000000E+00
  0.00000000E+00  0.00000000E+00  0.00000000E+00
  0.00000000E+00  0.00000000E+00  0.00000000E+00
  0.00000000E+00  0.00000000E+00  0.00000000E+00
  0.00000000E+00  0.00000000E+00  0.00000000E+00
  0.00000000E+00  0.00000000E+00  0.00000000E+00
  0.00000000E+00  0.00000000E+00  0.00000000E+00
  0.00000000E+00  0.00000000E+00  0.00000000E+00
  0.00000000E+00  0.00000000E+00  0.00000000E+00
  0.00000000E+00  0.00000000E+00  0.00000000E+00
  0.00000000E+00  0.00000000E+00  0.00000000E+00
  0.00000000E+00  0.00000000E+00  0.00000000E+00
  0.00000000E+00  0.00000000E+00  0.00000000E+00
  0.00000000E+00  0.00000000E+00  0.00000000E+00
  0.00000000E+00  0.00000000E+00  0.00000000E+00
  0.00000000E+00  0.00000000E+00  0.00000000E+00
  0.00000000E+00  0.00000000E+00  0.00000000E+00
  0.00000000E+00  0.00000000E+00  0.00000000E+00
  0.00000000E+00  0.00000000E+00  0.00000000E+00
  0.00000000E+00  0.00000000E+00  0.00000000E+00
  0.00000000E+00  0.00000000E+00  0.00000000E+00
  0.00000000E+00  0.00000000E+00  0.00000000E+00
  0.00000000E+00  0.00000000E+00  0.00000000E+00
  0.00000000E+00  0.00000000E+00  0.00000000E+00
  0.00000000E+00  0.00000000E+00  0.00000000E+00
  0.00000000E+00  0.00000000E+00  0.00000000E+00
  0.00000000E+00  0.00000000E+00  0.00000000E+00
  0.00000000E+00  0.00000000E+00  0.00000000E+00
  0.00000000E+00  0.00000000E+00  0.00000000E+00
  0.00000000E+00  0.00000000E+00  0.00000000E+00
  0.00000000E+00  0.00000000E+00  0.00000000E+00
  0.00000000E+00  0.00000000E+00  0.00000000E+00
  0.00000000E+00  0.00000000E+00  0.00000000E+00
  0.00000000E+00  0.00000000E+00  0.00000000E+00
  0.00000000E+00  0.00000000E+00  0.00000000E+00
  0.00000000E+00  0.00000000E+00  0.00000000E+00
  0.00000000E+00  0.00000000E+00  0.00000000E+00
  0.00000000E+00  0.00000000E+00  0.00000000E+00
  0.00000000E+00  0.00000000E+00  0.00000000E+00
  0.00000000E+00  0.00000000E+00  0.00000000E+00
  0.00000000E+00  0.00000000E+00  0.00000000E+00
  0.00000000E+00  0.00000000E+00  0.00000000E+00
  0.00000000E+00  0.00000000E+00  0.00000000E+00
  0.00000000E+00  0.00000000E+00  0.00000000E+00
  0.00000000E+00  0.00000000E+00  0.00000000E+00
  0.00000000E+00  0.00000000E+00  0.00000000E+00
  0.00000000E+00  0.00000000E+00  0.00000000E+00
  0.00000000E+00  0.00000000E+00  0.00000000E+00
  0.00000000E+00  0.00000000E+00  0.00000000E+00
  0.00000000E+00  0.00000000E+00  0.00000000E+00
  0.00000000E+00  0.00000000E+00  0.00000000E+00
  0.00000000E+00  0.00000000E+00  0.00000000E+00
  0.00000000E+00  0.00000000E+00  0.00000000E+00
  0.00000000E+00  0.00000000E+00  0.00000000E+00
  0.00000000E+00  0.00000000E+00  0.00000000E+00
  0.00000000E+00  0.00000000E+00  0.00000000E+00
  0.00000000E+00  0.00000000E+00  0.00000000E+00
  0.00000000E+00  0.00000000E+00  0.00000000E+00
  0.00000000E+00  0.00000000E+00  0.00000000E+00
  0.00000000E+00  0.00000000E+00  0.00000000E+00
  0.00000000E+00  0.00000000E+00  0.00000000E+00
  0.00000000E+00  0.00000000E+00  0.00000000E+00
  0.00000000E+00  0.00000000E+00  0.00000000E+00
  0.00000000E+00  0.00000000E+00  0.00000000E+00