fcc Si+fcc Ge
    1.000000000
   16.440000000    0.000000000    0.000000000
    0.000000000   17.329281578    0.000000000
    0.000000000    0.000000000   18.337881348
Si    Ge   
72     144
Direct
    0.166666665    0.249999998    0.236249778
    0.999999998    0.999999998    0.000000000
    0.833333332    0.849999998    0.047249956
    0.666666665    0.699999998    0.094499911
    0.499999998    0.549999998    0.141749867
    0.333333332    0.399999998    0.188999822
    0.499999998    0.249999998    0.236249778
    0.333333332    0.999999998    0.000000000
    0.166666665    0.849999998    0.047249956
    0.999999998    0.699999998    0.094499911
    0.833333332    0.549999998    0.141749867
    0.666666665    0.399999998    0.188999822
    0.833333332    0.249999998    0.236249778
    0.666666665    0.999999998    0.000000000
    0.499999998    0.849999998    0.047249956
    0.333333332    0.699999998    0.094499911
    0.166666665    0.549999998    0.141749867
    0.999999998    0.399999998    0.188999822
    0.166666665    0.749999998    0.236249778
    0.999999998    0.499999998    0.000000000
    0.833333332    0.349999998    0.047249956
    0.666666665    0.199999998    0.094499911
    0.499999998    0.049999998    0.141749867
    0.333333332    0.899999998    0.188999822
    0.499999998    0.749999998    0.236249778
    0.333333332    0.499999998    0.000000000
    0.166666665    0.349999998    0.047249956
    0.999999998    0.199999998    0.094499911
    0.833333332    0.049999998    0.141749867
    0.666666665    0.899999998    0.188999822
    0.833333332    0.749999998    0.236249778
    0.666666665    0.499999998    0.000000000
    0.499999998    0.349999998    0.047249956
    0.333333332    0.199999998    0.094499911
    0.166666665    0.049999998    0.141749867
    0.999999998    0.899999998    0.188999822
    0.249999998    0.999999998    0.236249778
    0.083333332    0.749999998    0.000000000
    0.916666665    0.599999998    0.047249956
    0.749999998    0.449999998    0.094499911
    0.583333332    0.299999998    0.141749867
    0.416666665    0.149999998    0.188999822
    0.583333332    0.999999998    0.236249778
    0.416666665    0.749999998    0.000000000
    0.249999998    0.599999998    0.047249956
    0.083333332    0.449999998    0.094499911
    0.916666665    0.299999998    0.141749867
    0.749999998    0.149999998    0.188999822
    0.916666665    0.999999998    0.236249778
    0.749999998    0.749999998    0.000000000
    0.583333332    0.599999998    0.047249956
    0.416666665    0.449999998    0.094499911
    0.249999998    0.299999998    0.141749867
    0.083333332    0.149999998    0.188999822
    0.249999998    0.499999998    0.236249778
    0.083333332    0.249999998    0.000000000
    0.916666665    0.099999998    0.047249956
    0.749999998    0.949999998    0.094499911
    0.583333332    0.799999998    0.141749867
    0.416666665    0.649999998    0.188999822
    0.583333332    0.499999998    0.236249778
    0.416666665    0.249999998    0.000000000
    0.249999998    0.099999998    0.047249956
    0.083333332    0.949999998    0.094499911
    0.916666665    0.799999998    0.141749867
    0.749999998    0.649999998    0.188999822
    0.916666665    0.499999998    0.236249778
    0.749999998    0.249999998    0.000000000
    0.583333332    0.099999998    0.047249956
    0.416666665    0.949999998    0.094499911
    0.249999998    0.799999998    0.141749867
    0.083333332    0.649999998    0.188999822
    0.822085886    0.587209301    0.345313631
    0.447085886    0.420542634    0.454438134
    0.072085886    0.253875967    0.563562637
    0.697085886    0.087209301    0.672687140
    0.322085886    0.920542634    0.781811644
    0.947085886    0.753875967    0.890936147
    0.822085886    0.920542634    0.345313631
    0.447085886    0.753875967    0.454438134
    0.072085886    0.587209301    0.563562637
    0.697085886    0.420542634    0.672687140
    0.322085886    0.253875967    0.781811644
    0.947085886    0.087209301    0.890936147
    0.822085886    0.253875967    0.345313631
    0.447085886    0.087209301    0.454438134
    0.072085886    0.920542634    0.563562637
    0.697085886    0.753875967    0.672687140
    0.322085886    0.587209301    0.781811644
    0.947085886    0.420542634    0.890936147
    0.322085886    0.587209301    0.345313631
    0.947085886    0.420542634    0.454438134
    0.572085886    0.253875967    0.563562637
    0.197085886    0.087209301    0.672687140
    0.822085886    0.920542634    0.781811644
    0.447085886    0.753875967    0.890936147
    0.322085886    0.920542634    0.345313631
    0.947085886    0.753875967    0.454438134
    0.572085886    0.587209301    0.563562637
    0.197085886    0.420542634    0.672687140
    0.822085886    0.253875967    0.781811644
    0.447085886    0.087209301    0.890936147
    0.322085886    0.253875967    0.345313631
    0.947085886    0.087209301    0.454438134
    0.572085886    0.920542634    0.563562637
    0.197085886    0.753875967    0.672687140
    0.822085886    0.587209301    0.781811644
    0.447085886    0.420542634    0.890936147
    0.072085886    0.587209301    0.345313631
    0.697085886    0.420542634    0.454438134
    0.322085886    0.253875967    0.563562637
    0.947085886    0.087209301    0.672687140
    0.572085886    0.920542634    0.781811644
    0.197085886    0.753875967    0.890936147
    0.072085886    0.920542634    0.345313631
    0.697085886    0.753875967    0.454438134
    0.322085886    0.587209301    0.563562637
    0.947085886    0.420542634    0.672687140
    0.572085886    0.253875967    0.781811644
    0.197085886    0.087209301    0.890936147
    0.072085886    0.253875967    0.345313631
    0.697085886    0.087209301    0.454438134
    0.322085886    0.920542634    0.563562637
    0.947085886    0.753875967    0.672687140
    0.572085886    0.587209301    0.781811644
    0.197085886    0.420542634    0.890936147
    0.572085886    0.587209301    0.345313631
    0.197085886    0.420542634    0.454438134
    0.822085886    0.253875967    0.563562637
    0.447085886    0.087209301    0.672687140
    0.072085886    0.920542634    0.781811644
    0.697085886    0.753875967    0.890936147
    0.572085886    0.920542634    0.345313631
    0.197085886    0.753875967    0.454438134
    0.822085886    0.587209301    0.563562637
    0.447085886    0.420542634    0.672687140
    0.072085886    0.253875967    0.781811644
    0.697085886    0.087209301    0.890936147
    0.572085886    0.253875967    0.345313631
    0.197085886    0.087209301    0.454438134
    0.822085886    0.920542634    0.563562637
    0.447085886    0.753875967    0.672687140
    0.072085886    0.587209301    0.781811644
    0.697085886    0.420542634    0.890936147
    0.197085886    0.837209301    0.345313631
    0.822085886    0.670542634    0.454438134
    0.447085886    0.503875967    0.563562637
    0.072085886    0.337209301    0.672687140
    0.697085886    0.170542634    0.781811644
    0.322085886    0.003875967    0.890936147
    0.197085886    0.170542634    0.345313631
    0.822085886    0.003875967    0.454438134
    0.447085886    0.837209301    0.563562637
    0.072085886    0.670542634    0.672687140
    0.697085886    0.503875967    0.781811644
    0.322085886    0.337209301    0.890936147
    0.197085886    0.503875967    0.345313631
    0.822085886    0.337209301    0.454438134
    0.447085886    0.170542634    0.563562637
    0.072085886    0.003875967    0.672687140
    0.697085886    0.837209301    0.781811644
    0.322085886    0.670542634    0.890936147
    0.697085886    0.837209301    0.345313631
    0.322085886    0.670542634    0.454438134
    0.947085886    0.503875967    0.563562637
    0.572085886    0.337209301    0.672687140
    0.197085886    0.170542634    0.781811644
    0.822085886    0.003875967    0.890936147
    0.697085886    0.170542634    0.345313631
    0.322085886    0.003875967    0.454438134
    0.947085886    0.837209301    0.563562637
    0.572085886    0.670542634    0.672687140
    0.197085886    0.503875967    0.781811644
    0.822085886    0.337209301    0.890936147
    0.697085886    0.503875967    0.345313631
    0.322085886    0.337209301    0.454438134
    0.947085886    0.170542634    0.563562637
    0.572085886    0.003875967    0.672687140
    0.197085886    0.837209301    0.781811644
    0.822085886    0.670542634    0.890936147
    0.947085886    0.837209301    0.345313631
    0.572085886    0.670542634    0.454438134
    0.197085886    0.503875967    0.563562637
    0.822085886    0.337209301    0.672687140
    0.447085886    0.170542634    0.781811644
    0.072085886    0.003875967    0.890936147
    0.947085886    0.170542634    0.345313631
    0.572085886    0.003875967    0.454438134
    0.197085886    0.837209301    0.563562637
    0.822085886    0.670542634    0.672687140
    0.447085886    0.503875967    0.781811644
    0.072085886    0.337209301    0.890936147
    0.947085886    0.503875967    0.345313631
    0.572085886    0.337209301    0.454438134
    0.197085886    0.170542634    0.563562637
    0.822085886    0.003875967    0.672687140
    0.447085886    0.837209301    0.781811644
    0.072085886    0.670542634    0.890936147
    0.447085886    0.837209301    0.345313631
    0.072085886    0.670542634    0.454438134
    0.697085886    0.503875967    0.563562637
    0.322085886    0.337209301    0.672687140
    0.947085886    0.170542634    0.781811644
    0.572085886    0.003875967    0.890936147
    0.447085886    0.170542634    0.345313631
    0.072085886    0.003875967    0.454438134
    0.697085886    0.837209301    0.563562637
    0.322085886    0.670542634    0.672687140
    0.947085886    0.503875967    0.781811644
    0.572085886    0.337209301    0.890936147
    0.447085886    0.503875967    0.345313631
    0.072085886    0.337209301    0.454438134
    0.697085886    0.170542634    0.563562637
    0.322085886    0.003875967    0.672687140
    0.947085886    0.837209301    0.781811644
    0.572085886    0.670542634    0.890936147
