C2
    1.000000000
    2.467291117    0.000000000    0.000000000
    0.000000000   10.000000954    0.000000000
   -0.000000108    0.000000000   18.273471832
C  
5
Direct
    0.996864974    0.249999985    0.000733164
    0.496864915    0.249999985    0.117664248
    0.996864915    0.249999985    0.234595314
    0.496864945    0.249999985    0.039710194
    0.996864796    0.249999985    0.156641290
