fcc Si+fcc Ge
    1.000000000
   16.440000000    0.000000000    0.000000000
    0.000000000   17.329281578    0.000000000
    0.000000000    0.000000000   18.137881348
Si    Ge   
72     144
Direct
    0.166666665    0.249999998    0.238854821
    0.999999998    0.999999998    0.000000000
    0.833333332    0.849999998    0.047770964
    0.101993861    0.333333332    0.895246861
    0.601993861    0.333333332    0.453935740
    0.101993861    0.749999998    0.343607959
    0.499999998    0.249999998    0.238854821
    0.351993861    0.999999998    0.895246861
    0.166666665    0.849999998    0.047770964
    0.226993861    0.583333332    0.895246861
    0.476993861    0.833333332    0.343607959
    0.666666665    0.399999998    0.191083856
    0.851993861    0.083333332    0.343607959
    0.666666665    0.999999998    0.000000000
    0.499999998    0.849999998    0.047770964
    0.333333332    0.699999998    0.095541928
    0.351993861    0.749999998    0.343607959
    0.476993861    0.499999998    0.343607959
    0.166666665    0.749999998    0.238854821
    0.999999998    0.499999998    0.000000000
    0.601993861    0.999999998    0.895246861
    0.851993861    0.999999998    0.895246861
    0.726993861    0.166666665    0.343607959
    0.333333332    0.899999998    0.191083856
    0.499999998    0.749999998    0.238854821
    0.351993861    0.666666665    0.895246861
    0.166666665    0.349999998    0.047770964
    0.101993861    0.416666665    0.784919081
    0.833333332    0.049999998    0.143312892
    0.666666665    0.899999998    0.191083856
    0.851993861    0.749999998    0.343607959
    0.666666665    0.499999998    0.000000000
    0.976993861    0.249999998    0.895246861
    0.976993861    0.916666665    0.895246861
    0.601993861    0.416666665    0.343607959
    0.999999998    0.899999998    0.191083856
    0.249999998    0.999999998    0.238854821
    0.083333332    0.749999998    0.000000000
    0.916666665    0.599999998    0.047770964
    0.749999998    0.449999998    0.095541928
    0.583333332    0.299999998    0.143312892
    0.416666665    0.149999998    0.191083856
    0.583333332    0.999999998    0.238854821
    0.851993861    0.333333332    0.895246861
    0.249999998    0.599999998    0.047770964
    0.083333332    0.449999998    0.095541928
    0.916666665    0.299999998    0.143312892
    0.749999998    0.149999998    0.191083856
    0.351993861    0.416666665    0.343607959
    0.749999998    0.749999998    0.000000000
    0.583333332    0.599999998    0.047770964
    0.416666665    0.449999998    0.095541928
    0.249999998    0.299999998    0.143312892
    0.083333332    0.149999998    0.191083856
    0.976993861    0.833333332    0.343607959
    0.083333332    0.249999998    0.000000000
    0.916666665    0.099999998    0.047770964
    0.726993861    0.583333332    0.895246861
    0.726993861    0.833333332    0.343607959
    0.416666665    0.649999998    0.191083856
    0.583333332    0.499999998    0.238854821
    0.416666665    0.249999998    0.000000000
    0.249999998    0.099999998    0.047770964
    0.226993861    0.916666665    0.895246861
    0.101993861    0.416666665    0.343607959
    0.749999998    0.649999998    0.191083856
    0.916666665    0.499999998    0.238854821
    0.476993861    0.916666665    0.895246861
    0.583333332    0.099999998    0.047770964
    0.601993861    0.333333332    0.895246861
    0.226993861    0.166666665    0.343607959
    0.083333332    0.649999998    0.191083856
    0.226993861    0.499999998    0.343607959
    0.851993861    0.333333332    0.453935740
    0.476993861    0.166666665    0.564263520
    0.101993861    0.999999998    0.674591300
    0.726993861    0.833333332    0.784919081
    0.333333332    0.499999998    0.000000000
    0.226993861    0.833333332    0.343607959
    0.851993861    0.666666665    0.453935740
    0.476993861    0.499999998    0.564263520
    0.101993861    0.333333332    0.674591300
    0.726993861    0.166666665    0.784919081
    0.333333332    0.999999998    0.000000000
    0.249999998    0.799999998    0.143312892
    0.851993861    0.999999998    0.453935740
    0.476993861    0.833333332    0.564263520
    0.101993861    0.666666665    0.674591300
    0.726993861    0.499999998    0.784919081
    0.351993861    0.333333332    0.895246861
    0.726993861    0.499999998    0.343607959
    0.351993861    0.333333332    0.453935740
    0.976993861    0.166666665    0.564263520
    0.601993861    0.999999998    0.674591300
    0.226993861    0.833333332    0.784919081
    0.851993861    0.666666665    0.895246861
    0.583333332    0.799999998    0.143312892
    0.351993861    0.666666665    0.453935740
    0.976993861    0.499999998    0.564263520
    0.601993861    0.333333332    0.674591300
    0.226993861    0.166666665    0.784919081
    0.666666665    0.199999998    0.095541928
    0.499999998    0.049999998    0.143312892
    0.351993861    0.999999998    0.453935740
    0.976993861    0.833333332    0.564263520
    0.601993861    0.666666665    0.674591300
    0.226993861    0.499999998    0.784919081
    0.416666665    0.749999998    0.000000000
    0.999999998    0.399999998    0.191083856
    0.101993861    0.333333332    0.453935740
    0.726993861    0.166666665    0.564263520
    0.351993861    0.999999998    0.674591300
    0.976993861    0.833333332    0.784919081
    0.601993861    0.666666665    0.895246861
    0.833333332    0.549999998    0.143312892
    0.101993861    0.666666665    0.453935740
    0.726993861    0.499999998    0.564263520
    0.351993861    0.333333332    0.674591300
    0.976993861    0.166666665    0.784919081
    0.833333332    0.349999998    0.047770964
    0.476993861    0.166666665    0.343607959
    0.101993861    0.999999998    0.453935740
    0.726993861    0.833333332    0.564263520
    0.351993861    0.666666665    0.674591300
    0.976993861    0.499999998    0.784919081
    0.416666665    0.949999998    0.095541928
    0.976993861    0.499999998    0.343607959
    0.499999998    0.549999998    0.143312892
    0.226993861    0.166666665    0.564263520
    0.851993861    0.999999998    0.674591300
    0.476993861    0.833333332    0.784919081
    0.101993861    0.666666665    0.895246861
    0.249999998    0.499999998    0.238854821
    0.601993861    0.666666665    0.453935740
    0.226993861    0.499999998    0.564263520
    0.851993861    0.333333332    0.674591300
    0.476993861    0.166666665    0.784919081
    0.101993861    0.999999998    0.895246861
    0.976993861    0.166666665    0.343607959
    0.601993861    0.999999998    0.453935740
    0.226993861    0.833333332    0.564263520
    0.851993861    0.666666665    0.674591300
    0.476993861    0.499999998    0.784919081
    0.666666665    0.699999998    0.095541928
    0.601993861    0.749999998    0.343607959
    0.226993861    0.583333332    0.453935740
    0.851993861    0.416666665    0.564263520
    0.476993861    0.249999998    0.674591300
    0.101993861    0.083333332    0.784919081
    0.726993861    0.916666665    0.895246861
    0.601993861    0.083333332    0.343607959
    0.226993861    0.916666665    0.453935740
    0.851993861    0.749999998    0.564263520
    0.476993861    0.583333332    0.674591300
    0.999999998    0.199999998    0.095541928
    0.726993861    0.249999998    0.895246861
    0.166666665    0.049999998    0.143312892
    0.226993861    0.249999998    0.453935740
    0.851993861    0.083333332    0.564263520
    0.476993861    0.916666665    0.674591300
    0.101993861    0.749999998    0.784919081
    0.749999998    0.949999998    0.095541928
    0.333333332    0.399999998    0.191083856
    0.726993861    0.583333332    0.453935740
    0.351993861    0.416666665    0.564263520
    0.976993861    0.249999998    0.674591300
    0.601993861    0.083333332    0.784919081
    0.083333332    0.949999998    0.095541928
    0.101993861    0.083333332    0.343607959
    0.726993861    0.916666665    0.453935740
    0.351993861    0.749999998    0.564263520
    0.976993861    0.583333332    0.674591300
    0.601993861    0.416666665    0.784919081
    0.226993861    0.249999998    0.895246861
    0.916666665    0.799999998    0.143312892
    0.726993861    0.249999998    0.453935740
    0.351993861    0.083333332    0.564263520
    0.976993861    0.916666665    0.674591300
    0.601993861    0.749999998    0.784919081
    0.999999998    0.699999998    0.095541928
    0.166666665    0.549999998    0.143312892
    0.976993861    0.583333332    0.453935740
    0.601993861    0.416666665    0.564263520
    0.226993861    0.249999998    0.674591300
    0.851993861    0.083333332    0.784919081
    0.749999998    0.249999998    0.000000000
    0.351993861    0.083333332    0.343607959
    0.976993861    0.916666665    0.453935740
    0.601993861    0.749999998    0.564263520
    0.226993861    0.583333332    0.674591300
    0.851993861    0.416666665    0.784919081
    0.476993861    0.249999998    0.895246861
    0.916666665    0.999999998    0.238854821
    0.976993861    0.249999998    0.453935740
    0.601993861    0.083333332    0.564263520
    0.226993861    0.916666665    0.674591300
    0.851993861    0.749999998    0.784919081
    0.476993861    0.583333332    0.895246861
    0.833333332    0.749999998    0.238854821
    0.476993861    0.583333332    0.453935740
    0.101993861    0.416666665    0.564263520
    0.726993861    0.249999998    0.674591300
    0.351993861    0.083333332    0.784919081
    0.333333332    0.199999998    0.095541928
    0.833333332    0.249999998    0.238854821
    0.476993861    0.916666665    0.453935740
    0.101993861    0.749999998    0.564263520
    0.726993861    0.583333332    0.674591300
    0.351993861    0.416666665    0.784919081
    0.499999998    0.349999998    0.047770964
    0.851993861    0.416666665    0.343607959
    0.476993861    0.249999998    0.453935740
    0.101993861    0.083333332    0.564263520
    0.726993861    0.916666665    0.674591300
    0.351993861    0.749999998    0.784919081
    0.976993861    0.583333332    0.895246861
