Hf1 S2
    1.000000000
    3.643366000    0.000000000    0.000000000
   -1.821683000    3.155247000    0.000000000
    0.000000000    0.000000000   30.058821447
Hf    S    
3     6
Direct
    0.000000000    0.000000000    0.486175706
    0.000000000    0.000000000    0.048070838
    0.000000000    0.000000000    0.267123272
    0.666667000    0.333333000    0.000000000
    0.666667000    0.333333000    0.219052434
    0.666667000    0.333333000    0.438104868
    0.333333000    0.666667000    0.534246543
    0.333333000    0.666667000    0.096141675
    0.333333000    0.666667000    0.315194109
