File converted from QE to VASP
    1.000000000
   10.557104240    0.000000000    0.000000000
    0.000000000   10.557104240    0.000000000
    0.000000000    0.000000000   35.721480703
Ca    Cu    Ti    O    
10     102     48     219
Direct
    0.876193519    0.005662324    0.384363018
    0.876176377    0.000600848    0.173503617
    0.378432558    0.504599206    0.384620097
    0.373948867    0.503231035    0.173489581
    0.375327961    0.001334232    0.068113134
    0.375712630    0.002198526    0.489565218
    0.376242340    0.004060220    0.279446751
    0.874326112    0.500709713    0.063828114
    0.878261570    0.515716123    0.494141770
    0.874900199    0.503340263    0.278659770
    0.125532908    0.754601050    0.383981123
    0.125718860    0.751161895    0.174515632
    0.626542652    0.256879323    0.383561455
    0.624535678    0.253079261    0.174024213
    0.128200836    0.254335784    0.383220902
    0.125493701    0.252200722    0.175001230
    0.624840185    0.755876351    0.383444923
    0.624916514    0.751928610    0.175023842
    0.874929948    0.000937153    0.070879947
    0.881456784    0.016204905    0.487945443
    0.875564745    0.003592608    0.279029616
    0.374930800    0.501031875    0.067436978
    0.375521177    0.506182108    0.491657008
    0.375970733    0.503573032    0.278988043
    0.376575674    0.005060624    0.382889010
    0.374099378    0.000886463    0.174932375
    0.876068956    0.505257057    0.384133715
    0.876635897    0.503428884    0.174729223
    0.126055067    0.744865346    0.066865075
    0.123874200    0.753786047    0.492637271
    0.125525892    0.753141179    0.279284580
    0.623742831    0.256942759    0.067283725
    0.627562780    0.257986693    0.491227265
    0.625942271    0.253927798    0.279013497
    0.123759079    0.247627111    0.069937372
    0.129497675    0.257513008    0.486798198
    0.126117487    0.253883114    0.279153137
    0.626177638    0.754235594    0.070073567
    0.624497894    0.759377328    0.487457767
    0.625840266    0.753027780    0.279316602
    0.891719235    0.064648044    0.613758219
    0.859363546    0.754737812    0.545385169
    0.893525916    0.400290554    0.618442211
    0.950167685    0.254945174    0.488579165
    0.896945292    0.730809397    0.616835326
    0.386707358    0.714664284    0.623338378
    0.895210236    0.064912033    0.746697631
    0.394695211    0.055636502    0.749218499
    0.894162166    0.392137055    0.747182565
    0.393892094    0.382656565    0.749972017
    0.893559474    0.733491491    0.746576281
    0.393398885    0.724637185    0.749046327
    0.895669568    0.064253300    0.879661781
    0.394295072    0.055788503    0.882165743
    0.895607909    0.403678280    0.876108570
    0.394586760    0.388316888    0.880157366
    0.897213382    0.738438927    0.876641935
    0.397088712    0.724787132    0.879358985
    0.895072173    0.224641816    0.680228360
    0.394343736    0.215668474    0.683301178
    0.892109394    0.560610072    0.682720459
    0.391689047    0.545888709    0.686564432
    0.890717018    0.900744668    0.680735962
    0.392361228    0.892838218    0.682953589
    0.895179592    0.228727720    0.813255370
    0.394942595    0.219604142    0.815789416
    0.895983775    0.566636611    0.811350219
    0.394633834    0.556457617    0.814059182
    0.895799704    0.901477637    0.812528944
    0.395285899    0.891621494    0.815000673
    0.888784511    0.238872298    0.941153731
    0.405475401    0.218649357    0.947911865
    0.894606962    0.567055953    0.939714923
    0.396046871    0.553035305    0.943073119
    0.895532980    0.902052698    0.946554711
    0.395180405    0.876723403    0.944943681
    0.144995258    0.065625955    0.682153289
    0.644373594    0.058458411    0.680741113
    0.140574070    0.387642480    0.682966253
    0.643082886    0.380186424    0.680946757
    0.141367916    0.733821039    0.685752800
    0.641769942    0.723656168    0.683298834
    0.145369962    0.063830292    0.815437557
    0.645222043    0.055227819    0.813166065
    0.145276136    0.397140926    0.814801254
    0.644405610    0.387201181    0.812151803
    0.145654376    0.732774429    0.814012941
    0.645684342    0.725238226    0.812164396
    0.146272621    0.079455030    0.944949760
    0.645976015    0.056397922    0.946570259
    0.143766182    0.406886448    0.943104311
    0.645025692    0.394190767    0.940237422
    0.134790451    0.740263730    0.947767589
    0.652287044    0.719151242    0.941051348
    0.144951211    0.219960023    0.613519055
    0.644278904    0.211187146    0.611979524
    0.142393514    0.559697693    0.623089368
    0.639128281    0.549900623    0.620488582
    0.142204409    0.893968269    0.618507120
    0.640507150    0.877237331    0.618616830
    0.145078186    0.228092524    0.749356489
    0.644999238    0.220427453    0.747176008
    0.143136425    0.560185524    0.748759261
    0.643804697    0.553175015    0.747048069
    0.143897009    0.901320997    0.749199576
    0.643877588    0.892689598    0.747190165
    0.144490357    0.231417296    0.880162913
    0.644746197    0.219206992    0.877737235
    0.146390680    0.570073008    0.879825001
    0.645216740    0.554939251    0.875936577
    0.147503789    0.898783248    0.881377153
    0.645953738    0.891141805    0.879218817
    0.127965402    0.986779616    0.012752929
    0.129055066    0.001288707    0.437105924
    0.125584714    0.002530244    0.227362240
    0.627860242    0.507975738    0.011858340
    0.629270991    0.503024547    0.438395007
    0.624731815    0.501304200    0.225802299
    0.389490508    0.753513295    0.014003312
    0.377983046    0.750989278    0.437163337
    0.375779410    0.752985228    0.227647946
    0.884270368    0.234944891    0.011845292
    0.882522727    0.258392905    0.434758615
    0.873148623    0.252488493    0.225303620
    0.359896958    0.247705267    0.014021859
    0.377233723    0.259672270    0.436290219
    0.376770550    0.252714338    0.226027230
    0.864939466    0.766107210    0.011790527
    0.870724440    0.755261597    0.436560208
    0.875591059    0.752467638    0.227176473
    0.126795580    0.003550859    0.120765867
    0.763325219    0.789527697    0.588972497
    0.123493122    0.001385943    0.331668440
    0.625529707    0.504860257    0.119866585
    0.607633368    0.512554202    0.547000192
    0.627344393    0.504331920    0.331609384
    0.621384996    0.014856492    0.012808171
    0.624574940    0.010555982    0.436104933
    0.625599045    0.004210846    0.225970066
    0.120482724    0.492734545    0.011670969
    0.126545802    0.507812578    0.437782124
    0.125502819    0.502672184    0.227205389
    0.377719724    0.751449346    0.120341301
    0.386443527    0.770586565    0.548463155
    0.373115425    0.751345630    0.332151852
    0.880520395    0.253721059    0.120393636
    0.871419512    0.264565665    0.540984897
    0.878782951    0.254874433    0.330457022
    0.371848949    0.252077145    0.120693040
    0.369878726    0.235729654    0.545102517
    0.377811852    0.257333412    0.331067315
    0.869970137    0.748771821    0.120136252
    0.399869798    0.055431948    0.614682999
    0.875898895    0.753204019    0.332044179
    0.623635554    0.999303615    0.121096082
    0.629711471    0.015775108    0.544669170
    0.628470186    0.005909399    0.330864065
    0.124118211    0.498030586    0.119196257
    0.143953403    0.491260065    0.546497075
    0.125018898    0.504406662    0.332327319
    0.019353750    0.131579759    0.009712202
    0.025503311    0.158554595    0.419200749
    0.026845839    0.152969528    0.211899954
    0.522206161    0.647567638    0.007715822
    0.526657314    0.657724136    0.420176725
    0.525537459    0.654346210    0.211762637
    0.026961987    0.151781824    0.138678025
    0.979332213    0.955245302    0.529843700
    0.027753719    0.155932513    0.346040890
    0.524346127    0.653011923    0.138178187
    0.515076765    0.657523904    0.552638930
    0.526992612    0.656862358    0.346452295
    0.227359312    0.353343697    0.007391312
    0.226446266    0.355255374    0.419918003
    0.223657909    0.352460358    0.211699129
    0.730594882    0.870506475    0.009326722
    0.011190989    0.506079554    0.591349901
    0.725147034    0.850933221    0.211897760
    0.224007714    0.351661127    0.138057413
    0.248691878    0.771226416    0.593149787
    0.225075648    0.353125197    0.346091557
    0.724929385    0.849586518    0.138684453
    0.732293766    0.880663550    0.546194501
    0.724345815    0.852481203    0.346291013
    0.114977040    0.941729809    0.383183006
    0.116999125    0.931796486    0.175270574
    0.617542819    0.443695062    0.383990062
    0.614595787    0.439446188    0.174573970
    0.439920860    0.266718156    0.382984518
    0.437618380    0.262765724    0.174490649
    0.939290756    0.764793725    0.384078376
    0.945084976    0.759323146    0.174636070
    0.311991510    0.744741677    0.383467450
    0.306543106    0.742998291    0.174499691
    0.812854430    0.247477623    0.384364341
    0.811372006    0.243436753    0.174807268
    0.636975027    0.069299597    0.382876786
    0.635335745    0.066348342    0.175298812
    0.135059846    0.567696855    0.383897870
    0.134334797    0.570915145    0.174314179
    0.966276057    0.904154819    0.034584302
    0.300678271    0.182221930    0.588241125
    0.964209872    0.914201467    0.238213303
    0.464546940    0.406328915    0.031725111
    0.465795852    0.417507088    0.447485335
    0.463937717    0.414144300    0.237906606
    0.959743518    0.914636949    0.111185770
    0.964274325    0.915496591    0.320318720
    0.460593279    0.415296969    0.109353633
    0.473754578    0.411890199    0.529049337
    0.464965518    0.416133065    0.320280098
    0.285113860    0.595239545    0.031629337
    0.288595283    0.594320340    0.447571375
    0.286833964    0.591781674    0.238034291
    0.783261033    0.097381705    0.034699255
    0.791977862    0.091209714    0.446245217
    0.786961209    0.091734791    0.238171382
    0.289284640    0.587497440    0.109175537
    0.275207345    0.599399077    0.529427463
    0.287360835    0.592694891    0.320408991
    0.790622720    0.087821978    0.111328958
    0.778439462    0.111102808    0.520215410
    0.787759799    0.093041216    0.320424093
    0.271854108    0.083068008    0.014581096
    0.292070184    0.090720874    0.422046740
    0.285979178    0.091696904    0.215927173
    0.777721488    0.604127644    0.010943279
    0.788531007    0.594452558    0.425205105
    0.786642378    0.592229340    0.215835176
    0.477832168    0.918217208    0.014490242
    0.461784738    0.919751842    0.422169070
    0.464313316    0.913181380    0.216015101
    0.971122191    0.397086331    0.010838061
    0.966149716    0.417963364    0.425271162
    0.965057798    0.413911435    0.215851928
    0.225309415    0.839861008    0.033355874
    0.223414624    0.851653375    0.453167645
    0.224563780    0.851651801    0.242415930
    0.717908333    0.349502922    0.029743470
    0.727919258    0.356551100    0.454324758
    0.724386056    0.351979200    0.242071288
    0.217500577    0.841816210    0.105420918
    0.228286745    0.850461426    0.527997633
    0.224039678    0.852453079    0.316300823
    0.720832056    0.347989340    0.104367805
    0.728343081    0.357051066    0.531076565
    0.724639862    0.352602979    0.316341470
    0.130553562    0.061985789    0.072737055
    0.137407319    0.083117700    0.482183295
    0.136678752    0.065947768    0.279320587
    0.633313494    0.568778750    0.071415501
    0.630796833    0.578231452    0.487316048
    0.635738371    0.565968964    0.279227168
    0.307199957    0.239320801    0.071432940
    0.308153538    0.249528370    0.485621942
    0.313046673    0.243230837    0.279274913
    0.809357359    0.744321536    0.071492565
    0.805607920    0.752515759    0.487209955
    0.813901611    0.743108871    0.279254717
    0.287715641    0.088838340    0.133699140
    0.273728412    0.089593796    0.542384267
    0.289705837    0.090964021    0.343585486
    0.786846972    0.589187813    0.133657910
    0.770837057    0.609349068    0.547921619
    0.787521671    0.593283277    0.342635119
    0.462093254    0.913805580    0.133767986
    0.474263900    0.922060213    0.546519757
    0.462552447    0.918124364    0.343555347
    0.963729818    0.414166669    0.133636300
    0.979031996    0.401065661    0.545677757
    0.964581131    0.415711942    0.342721438
    0.524622033    0.161761610    0.033596137
    0.530976798    0.160195408    0.450907698
    0.526630499    0.154455591    0.242072616
    0.031807670    0.651795355    0.029309906
    0.028126580    0.657129572    0.454115713
    0.026823976    0.654078464    0.242320042
    0.532311160    0.160436891    0.105815138
    0.521122488    0.159918600    0.524415578
    0.527518328    0.155746942    0.315949114
    0.028816766    0.654370858    0.103816846
    0.014426871    0.672938090    0.529430294
    0.027189164    0.655606588    0.316518473
    0.442517405    0.763132312    0.071352494
    0.445096288    0.766584208    0.486630598
    0.437900809    0.763990596    0.279325887
    0.940702672    0.257662073    0.071745471
    0.389533321    0.385328432    0.621094343
    0.938519779    0.264078702    0.279366372
    0.619721002    0.939107739    0.073071666
    0.613654298    0.938561652    0.484143088
    0.615289010    0.940458610    0.279521800
    0.116244014    0.433859231    0.070988316
    0.123167735    0.436906981    0.487473801
    0.115660289    0.441800577    0.279202584
    0.027875092    0.106863565    0.584821623
    0.011634136    0.157055257    0.966978776
    0.542762767    0.083457311    0.583678374
    0.511846257    0.088117511    0.979154742
    0.726214382    0.853665754    0.419589782
    0.024597844    0.506675558    0.971358584
    0.517952857    0.456126508    0.591282362
    0.513380276    0.452883928    0.971791747
    0.005303597    0.849526105    0.587634394
    0.028446952    0.872056625    0.979396951
    0.511354311    0.790301178    0.596837030
    0.528562415    0.798320828    0.967179760
    0.021108046    0.150163601    0.714668178
    0.520399417    0.133012895    0.715264762
    0.018225576    0.477556033    0.714867058
    0.520235444    0.459164651    0.716124905
    0.016062773    0.824956348    0.715458059
    0.516118267    0.807397640    0.715697433
    0.019296200    0.149896146    0.847219438
    0.518683913    0.130689450    0.847478116
    0.022363710    0.490950792    0.845626103
    0.518359994    0.466438976    0.845730554
    0.023465861    0.824417859    0.846009112
    0.522392065    0.805515204    0.846328147
    0.964737495    0.918601106    0.448927771
    0.267274576    0.173129771    0.975794119
    0.785002750    0.169172553    0.581533447
    0.747890407    0.187936104    0.971694274
    0.266242292    0.476464094    0.597986035
    0.269262135    0.481182094    0.969614588
    0.765524661    0.477035326    0.594033353
    0.766945663    0.485475281    0.963308594
    0.234745454    0.349681442    0.553539087
    0.272964975    0.786379738    0.975677052
    0.132028404    0.978965538    0.553266731
    0.792723930    0.772982014    0.971562953
    0.269627566    0.140408397    0.717079168
    0.770113272    0.143393247    0.712778499
    0.265159983    0.464271646    0.718480622
    0.767324274    0.469762202    0.713668722
    0.268914837    0.815031077    0.717355414
    0.768195162    0.813523003    0.713145096
    0.270354316    0.141734821    0.849806563
    0.770882053    0.140494261    0.845261834
    0.270363316    0.478535291    0.848129033
    0.770210548    0.478623404    0.841895546
    0.270561969    0.811531113    0.848509128
    0.770292222    0.815251487    0.844154804
    0.015770711    0.987723954    0.650106133
    0.519288650    0.968190401    0.650279596
    0.019435291    0.305674222    0.646886454
    0.518916949    0.286242685    0.648313600
    0.017582413    0.655771022    0.652113873
    0.512837571    0.631864375    0.653757944
    0.020028010    0.988691929    0.780961667
    0.519668051    0.970237618    0.781214769
    0.020039424    0.315674561    0.781338083
    0.519581046    0.296416605    0.781544430
    0.020295518    0.653900712    0.779578275
    0.519638453    0.636971316    0.780507789
    0.022829310    0.987840798    0.912434381
    0.519227135    0.966747386    0.912597711
    0.016817232    0.322226408    0.910565756
    0.521155757    0.294468487    0.911733125
    0.020042377    0.664574143    0.911215207
    0.524221143    0.635857572    0.910467008
    0.270165815    0.979605711    0.649264650
    0.766275490    0.980637007    0.646066811
    0.266720378    0.301249179    0.652804063
    0.769568643    0.303910887    0.647321626
    0.263348472    0.634486166    0.657084198
    0.765807414    0.640693090    0.650320564
    0.270039320    0.978040033    0.783359527
    0.770172888    0.978840597    0.778623538
    0.269455091    0.305494972    0.784131063
    0.770311390    0.305789870    0.779091329
    0.269126694    0.642364690    0.782096629
    0.769113387    0.645273824    0.777839320
    0.270511209    0.977488926    0.916258256
    0.770712110    0.978039900    0.912328685
    0.267753081    0.312987943    0.913034069
    0.767041609    0.318238572    0.906487293
    0.273618837    0.645896722    0.912511784
    0.774335437    0.642669360    0.905640802
