calcium zirconate
1.0
        5.5911102295         0.0000000000         0.0000000000
        0.0000000000         8.0168695450         0.0000000000
        0.0000000000         0.0000000000         5.7612800598
   Ca   Zr    O
    4    4   12
Cartesian
     0.069888882         2.004217386         0.279422104
     5.521221638         6.012652397         5.481857777
     2.865443945         6.012652397         2.601217985
     2.725666285         2.004217386         3.160062075
     0.000000000         0.000000000         2.880640030
     2.795555115         0.000000000         0.000000000
     0.000000000         4.008434772         2.880640030
     2.795555115         4.008434772         0.000000000
     3.374794245         2.004217386         5.532557011
     2.216315985         6.012652397         0.228722826
     0.579239190         6.012652397         3.109363079
     5.011870861         2.004217386         2.651917219
     1.689633489         0.437721074         1.728384137
     3.901476860         7.579148293         4.032896042
     4.485188484         7.579148293         1.152255893
     1.105921626         0.437721074         4.609024048
     3.901476860         4.446156025         4.032896042
     1.689633489         3.570713758         1.728384137
     1.105921626         3.570713758         4.609024048
     4.485188484         4.446156025         1.152255893
