Mo2 S4
    1.000000000
    3.190316000    0.000000000    0.000000000
   -1.595158000    2.762894000    0.000000000
    0.000000000    0.000000000   32.008772733
Mo    S    
3     6
Direct
    0.333333000    0.666667000    0.048889234
    0.333333000    0.666667000    0.513730673
    0.666667000    0.333333000    0.281309953
    0.666667000    0.333333000    0.097778467
    0.666667000    0.333333000    0.562619907
    0.333333000    0.666667000    0.330199187
    0.666667000    0.333333000    0.000000000
    0.666667000    0.333333000    0.464841440
    0.333333000    0.666667000    0.232420720
